NAME : XML500_2176_01
COMMENT : Generated as the XML100 dataset from the CVRPLIB
TYPE : CVRP
DIMENSION : 501
EDGE_WEIGHT_TYPE : EUC_2D
CAPACITY : 248
NODE_COORD_SECTION
1    5000 5000
2    5099 9456
3    7521 7459
4    9939 1180
5    6660 4649
6    7093 6671
7    2178 7486
8    9924 3053
9    9468 5696
10   4500 2351
11   5277 1210
12   2803 308 
13   9884 8467
14   5573 1855
15   817  9918
16   2868 5796
17   6504 5317
18   3125 8565
19   9787 4827
20   8301 7689
21   7466 4957
22   2562 3674
23   453  901 
24   7092 2499
25   7906 9864
26   2724 8018
27   7516 9308
28   5979 5043
29   5694 5374
30   6556 512 
31   8190 1028
32   6608 376 
33   9101 3416
34   6496 9999
35   5319 8223
36   59   7275
37   9595 7039
38   7376 1939
39   3154 3956
40   1518 4040
41   6151 6548
42   2452 6298
43   3204 9642
44   4785 9702
45   9454 5907
46   9991 7399
47   4750 8742
48   9669 1722
49   8549 7785
50   5094 3658
51   3602 9339
52   1977 7571
53   9111 873 
54   7163 7716
55   7300 4021
56   956  2694
57   9064 4707
58   4714 5482
59   9798 380 
60   2584 9517
61   2517 3888
62   5917 730 
63   5545 2919
64   6430 3298
65   1273 5658
66   2777 864 
67   5480 8648
68   4539 7906
69   776  5872
70   4555 1287
71   6379 2727
72   2538 9931
73   6123 9882
74   3843 2909
75   691  2807
76   2535 706 
77   821  598 
78   6511 7196
79   7824 9275
80   7560 1085
81   7578 8049
82   2697 3206
83   8517 5790
84   5850 1144
85   4738 3302
86   6667 7811
87   9829 915 
88   1375 8844
89   1246 4095
90   5501 3043
91   6022 7601
92   6935 5380
93   9379 7663
94   9418 4837
95   677  3071
96   3922 7203
97   9958 4006
98   7151 8210
99   49   9901
100  2074 6548
101  4141 6170
102  6421 1544
103  5893 7961
104  9640 787 
105  7325 5623
106  2990 1306
107  700  6484
108  6127 4625
109  6227 9992
110  8776 9014
111  7231 1616
112  4060 4547
113  1064 9577
114  5767 362 
115  4854 7132
116  5016 267 
117  7988 18  
118  4172 5901
119  4451 8521
120  3040 4958
121  5546 7657
122  563  8530
123  1332 588 
124  6013 6639
125  2278 4346
126  7650 5147
127  9174 3125
128  3967 7792
129  2305 455 
130  8599 5054
131  4796 5707
132  7524 2792
133  1453 3428
134  2702 2855
135  192  7440
136  7646 4816
137  1957 4374
138  1458 757 
139  6488 7466
140  811  9502
141  2508 8410
142  7939 6827
143  8315 4319
144  5041 1563
145  6322 3124
146  8724 4761
147  5595 5717
148  8523 9023
149  4546 2625
150  5293 539 
151  6944 9990
152  3184 1589
153  6628 7235
154  82   8926
155  1519 2490
156  5721 8825
157  5973 1155
158  283  2320
159  4707 5823
160  565  6534
161  9030 7342
162  2647 1203
163  1850 1582
164  7510 6360
165  6129 8457
166  6889 5839
167  6147 725 
168  6938 7333
169  9548 3569
170  8051 877 
171  4214 7147
172  2528 936 
173  2914 2042
174  9620 7862
175  7098 6784
176  8868 9583
177  7360 6631
178  71   8229
179  200  2589
180  2645 7915
181  9722 262 
182  5825 5598
183  6219 2445
184  4192 1180
185  9785 9021
186  9007 4205
187  5246 9045
188  160  5998
189  9351 859 
190  4622 8792
191  7010 6634
192  9525 6891
193  1781 9965
194  1750 6910
195  46   7185
196  283  7054
197  2730 4497
198  2760 9878
199  2128 904 
200  4039 4740
201  3145 5732
202  988  3456
203  3894 9404
204  679  878 
205  1147 1164
206  465  2753
207  7913 1392
208  2137 3250
209  2691 510 
210  217  2516
211  4857 5743
212  4245 7507
213  1587 8360
214  7738 8184
215  6125 5480
216  8774 239 
217  2667 2758
218  9690 3189
219  6764 3905
220  9849 2808
221  9541 2874
222  9452 6539
223  8136 4934
224  7340 6632
225  6012 6296
226  9099 2768
227  7694 4490
228  2340 6153
229  9259 5995
230  6924 5092
231  3272 1149
232  8793 8374
233  7024 5901
234  3946 2761
235  7498 873 
236  4646 4297
237  9286 2098
238  2995 6909
239  4907 7604
240  9651 4244
241  8003 1359
242  427  1226
243  6905 1899
244  2720 5152
245  6802 578 
246  2542 7385
247  1142 3088
248  6354 8026
249  4740 813 
250  2391 972 
251  2133 1170
252  9007 8771
253  7471 7008
254  9249 5905
255  2282 7514
256  1572 5054
257  3955 8607
258  9220 9116
259  7036 924 
260  2813 1281
261  927  9974
262  5581 4691
263  5136 3091
264  1892 6849
265  1759 7900
266  1312 115 
267  2729 3715
268  4807 8216
269  2716 9154
270  828  5728
271  3262 82  
272  8550 2923
273  5969 1899
274  7240 9898
275  3504 2402
276  6312 1104
277  3368 2085
278  1112 8768
279  2306 1712
280  2917 8543
281  6887 2272
282  2930 2798
283  4894 9206
284  7485 6949
285  4356 9789
286  6165 9472
287  1111 6001
288  2678 9773
289  6645 7671
290  8902 8853
291  1893 7828
292  6599 9982
293  1414 4013
294  5723 1445
295  5451 5845
296  1490 1749
297  3919 1873
298  7691 3975
299  5233 3975
300  126  3433
301  2224 6888
302  3851 1750
303  3141 9331
304  3115 9339
305  849  2711
306  7143 7700
307  878  9578
308  9851 2452
309  5087 9860
310  2895 1632
311  280  9134
312  6329 8929
313  9801 8018
314  4148 2884
315  6934 3757
316  5613 4411
317  3840 3654
318  7590 8322
319  2523 7396
320  7234 2725
321  8298 8182
322  7286 7713
323  2467 8154
324  6252 6901
325  7148 5263
326  3128 5712
327  9253 530 
328  1309 4288
329  604  520 
330  156  5594
331  6882 5038
332  1901 2463
333  9798 7024
334  2108 819 
335  8017 7439
336  3263 5810
337  5471 4900
338  9750 6564
339  9577 9757
340  5378 611 
341  5186 5199
342  2219 7609
343  8765 6032
344  9281 2200
345  7906 9471
346  547  7169
347  8740 1326
348  5776 7554
349  8994 7383
350  5100 2910
351  4378 2609
352  783  9038
353  3574 8447
354  4064 3319
355  6447 8859
356  686  2308
357  2538 975 
358  6497 1939
359  7533 8008
360  6811 9244
361  408  1906
362  7125 6779
363  6939 5625
364  3194 4962
365  3404 4061
366  6330 3750
367  509  2053
368  8079 6874
369  9154 8401
370  2933 5549
371  4487 1730
372  2478 990 
373  6986 5388
374  8690 6726
375  8567 3053
376  9540 9533
377  7038 1518
378  9426 7847
379  239  7110
380  7253 8869
381  4241 282 
382  5904 6450
383  9144 8703
384  7335 899 
385  8772 1063
386  7771 1633
387  1493 7548
388  6205 8704
389  7122 3664
390  7439 7947
391  5164 8036
392  2885 7866
393  9695 5368
394  2836 2886
395  966  1786
396  6938 1458
397  2472 441 
398  8228 7049
399  2664 7820
400  3129 8997
401  9744 7848
402  5271 4727
403  6692 6256
404  7597 2876
405  9412 1269
406  3935 5150
407  4021 583 
408  1210 6908
409  9293 6130
410  977  2384
411  2559 6261
412  8024 9673
413  780  9474
414  152  7859
415  9698 2002
416  7705 2990
417  379  7272
418  2090 544 
419  9369 7197
420  5010 6863
421  9550 66  
422  8232 3727
423  7781 3081
424  5906 7884
425  4923 781 
426  2584 1923
427  2769 9270
428  4254 8478
429  5133 7603
430  5315 7800
431  8936 2873
432  7836 8043
433  7560 6572
434  4828 8336
435  4045 4036
436  9310 5367
437  2314 5914
438  2631 8700
439  8799 1972
440  1730 4677
441  8029 5370
442  7319 7815
443  3468 8104
444  6611 4946
445  9929 5659
446  4971 3010
447  4372 9088
448  6991 3403
449  9160 6162
450  7237 8512
451  9241 5352
452  3172 4628
453  2532 4191
454  2858 2780
455  9693 8816
456  5917 7047
457  2229 6683
458  1171 229 
459  5559 9408
460  6398 2736
461  715  5433
462  9549 2592
463  4258 9350
464  8441 7755
465  9154 1683
466  444  8873
467  9245 4035
468  9882 5817
469  1143 4266
470  1068 4429
471  7131 3628
472  6399 8122
473  6860 9029
474  8550 793 
475  1484 1686
476  243  3376
477  8514 8575
478  57   9433
479  80   5334
480  905  5701
481  703  8259
482  3100 1286
483  9401 3164
484  3113 3789
485  3616 6452
486  1967 6371
487  1072 9757
488  8787 5998
489  7598 8559
490  7006 8351
491  3860 2195
492  6115 4125
493  89   2018
494  3193 8055
495  1623 5662
496  8204 8920
497  4966 5940
498  3748 6348
499  2217 5745
500  7484 2861
501  2654 5613
DEMAND_SECTION
1    0   
2    2   
3    8   
4    5   
5    1   
6    6   
7    54  
8    10  
9    1   
10   9   
11   93  
12   91  
13   9   
14   1   
15   6   
16   1   
17   9   
18   9   
19   6   
20   7   
21   6   
22   3   
23   8   
24   9   
25   6   
26   2   
27   9   
28   10  
29   10  
30   4   
31   5   
32   6   
33   6   
34   89  
35   8   
36   10  
37   4   
38   4   
39   1   
40   10  
41   9   
42   79  
43   100 
44   5   
45   7   
46   5   
47   8   
48   9   
49   5   
50   4   
51   7   
52   5   
53   10  
54   67  
55   59  
56   4   
57   7   
58   7   
59   9   
60   3   
61   3   
62   2   
63   6   
64   4   
65   6   
66   1   
67   6   
68   6   
69   7   
70   5   
71   5   
72   8   
73   1   
74   3   
75   1   
76   9   
77   8   
78   7   
79   3   
80   9   
81   3   
82   5   
83   10  
84   8   
85   2   
86   7   
87   85  
88   4   
89   8   
90   5   
91   1   
92   3   
93   9   
94   10  
95   10  
96   7   
97   59  
98   10  
99   9   
100  2   
101  7   
102  3   
103  9   
104  4   
105  3   
106  4   
107  6   
108  1   
109  9   
110  3   
111  9   
112  9   
113  10  
114  8   
115  74  
116  2   
117  5   
118  8   
119  9   
120  6   
121  9   
122  7   
123  2   
124  1   
125  8   
126  5   
127  5   
128  5   
129  2   
130  4   
131  8   
132  6   
133  4   
134  10  
135  6   
136  94  
137  9   
138  2   
139  1   
140  1   
141  6   
142  8   
143  9   
144  8   
145  6   
146  9   
147  8   
148  10  
149  8   
150  5   
151  3   
152  8   
153  4   
154  8   
155  8   
156  8   
157  10  
158  2   
159  1   
160  9   
161  9   
162  3   
163  9   
164  6   
165  6   
166  7   
167  4   
168  2   
169  8   
170  3   
171  8   
172  7   
173  9   
174  10  
175  9   
176  10  
177  9   
178  9   
179  8   
180  2   
181  2   
182  10  
183  6   
184  4   
185  1   
186  60  
187  9   
188  7   
189  1   
190  8   
191  4   
192  4   
193  79  
194  7   
195  2   
196  5   
197  7   
198  3   
199  10  
200  2   
201  2   
202  6   
203  1   
204  7   
205  6   
206  2   
207  2   
208  9   
209  6   
210  10  
211  1   
212  10  
213  10  
214  8   
215  7   
216  9   
217  6   
218  4   
219  5   
220  7   
221  9   
222  3   
223  7   
224  6   
225  1   
226  4   
227  10  
228  8   
229  2   
230  3   
231  8   
232  4   
233  1   
234  3   
235  3   
236  7   
237  9   
238  10  
239  4   
240  1   
241  8   
242  7   
243  3   
244  2   
245  5   
246  4   
247  8   
248  5   
249  2   
250  8   
251  2   
252  2   
253  2   
254  5   
255  8   
256  7   
257  1   
258  6   
259  5   
260  6   
261  1   
262  9   
263  5   
264  9   
265  5   
266  7   
267  2   
268  10  
269  3   
270  2   
271  10  
272  10  
273  4   
274  8   
275  10  
276  6   
277  77  
278  1   
279  2   
280  5   
281  7   
282  2   
283  10  
284  1   
285  4   
286  5   
287  76  
288  6   
289  9   
290  9   
291  9   
292  8   
293  4   
294  10  
295  82  
296  1   
297  8   
298  3   
299  10  
300  6   
301  7   
302  2   
303  9   
304  2   
305  1   
306  4   
307  5   
308  4   
309  9   
310  9   
311  7   
312  10  
313  4   
314  5   
315  3   
316  9   
317  7   
318  6   
319  1   
320  10  
321  5   
322  9   
323  8   
324  3   
325  8   
326  1   
327  5   
328  5   
329  9   
330  7   
331  3   
332  10  
333  9   
334  3   
335  3   
336  7   
337  9   
338  5   
339  5   
340  74  
341  10  
342  9   
343  7   
344  1   
345  7   
346  2   
347  80  
348  1   
349  1   
350  5   
351  1   
352  7   
353  10  
354  3   
355  2   
356  90  
357  8   
358  8   
359  4   
360  2   
361  2   
362  8   
363  9   
364  2   
365  53  
366  10  
367  3   
368  1   
369  51  
370  68  
371  4   
372  10  
373  4   
374  4   
375  9   
376  8   
377  6   
378  6   
379  10  
380  2   
381  10  
382  10  
383  7   
384  3   
385  5   
386  1   
387  10  
388  7   
389  10  
390  3   
391  2   
392  7   
393  10  
394  10  
395  10  
396  10  
397  8   
398  2   
399  6   
400  4   
401  7   
402  5   
403  7   
404  2   
405  3   
406  2   
407  10  
408  9   
409  9   
410  4   
411  6   
412  2   
413  2   
414  2   
415  10  
416  6   
417  4   
418  10  
419  1   
420  2   
421  10  
422  4   
423  6   
424  2   
425  1   
426  10  
427  8   
428  1   
429  1   
430  1   
431  1   
432  1   
433  8   
434  8   
435  10  
436  9   
437  1   
438  3   
439  8   
440  5   
441  6   
442  7   
443  7   
444  10  
445  5   
446  1   
447  4   
448  7   
449  10  
450  4   
451  9   
452  9   
453  8   
454  3   
455  2   
456  7   
457  4   
458  2   
459  5   
460  7   
461  8   
462  6   
463  4   
464  7   
465  9   
466  53  
467  6   
468  5   
469  4   
470  5   
471  8   
472  7   
473  9   
474  5   
475  1   
476  7   
477  5   
478  2   
479  9   
480  8   
481  4   
482  10  
483  4   
484  6   
485  4   
486  2   
487  3   
488  1   
489  6   
490  1   
491  6   
492  8   
493  9   
494  2   
495  8   
496  5   
497  98  
498  5   
499  53  
500  99  
501  52  
DEPOT_SECTION
1
-1
EOF
