NAME : XML10000_2323_01
COMMENT : Generated as the XML100 dataset from the CVRPLIB
TYPE : CVRP
DIMENSION : 10001
EDGE_WEIGHT_TYPE : EUC_2D
CAPACITY : 45
NODE_COORD_SECTION
1    5000 5000
2    5408 6017
3    2375 8590
4    7093 6671
5    8535 6780
6    4299 7305
7    6508 1593
8    7439 5023
9    6403 7262
10   5970 8410
11   820  2109
12   6202 9027
13   4486 7606
14   3537 7437
15   8443 8169
16   4990 9773
17   4778 7241
18   7401 1723
19   6373 8114
20   9332 4028
21   3737 3125
22   9055 6848
23   8724 8174
24   9485 4288
25   5919 7996
26   3273 9824
27   3924 5401
28   3125 8565
29   2792 1250
30   5963 5861
31   4255 6574
32   5396 6078
33   8711 5465
34   9664 3088
35   5342 2122
36   5680 8248
37   8661 1838
38   5246 8623
39   7627 8837
40   3472 2788
41   2724 8018
42   5601 8048
43   7083 4965
44   9544 9226
45   8225 147 
46   8841 4689
47   2259 9537
48   6542 2045
49   9150 7532
50   6002 7862
51   6382 4851
52   7804 4631
53   847  9055
54   6878 840 
55   4762 4892
56   4454 8501
57   8321 9889
58   3436 3510
59   7705 2365
60   9182 2657
61   5511 8198
62   3229 6303
63   8326 4341
64   3974 7380
65   6680 8610
66   165  3040
67   794  5103
68   5035 7367
69   4223 8051
70   2622 3316
71   4652 9061
72   3392 998 
73   8778 7732
74   5656 8545
75   5214 9139
76   7722 4873
77   1438 1243
78   5408 5601
79   3649 7034
80   8295 5127
81   6716 5569
82   2517 3888
83   2331 4616
84   8822 5451
85   5608 6832
86   5719 8184
87   7764 667 
88   6837 3886
89   4988 6993
90   5374 7534
91   810  5926
92   5416 3914
93   302  4187
94   6265 5581
95   6584 1027
96   473  3547
97   5747 1612
98   5497 2849
99   4252 4762
100  7727 4815
101  5112 8692
102  8114 5453
103  4571 7707
104  7005 9651
105  3292 9500
106  8028 7234
107  1637 9434
108  2286 4023
109  4642 7408
110  8381 4455
111  9932 6017
112  6143 5937
113  208  6080
114  662  7591
115  4946 7410
116  6977 5863
117  7237 4993
118  45   3683
119  8345 3539
120  4793 5657
121  6580 7718
122  5465 5716
123  5324 5245
124  4090 9743
125  6466 4457
126  1145 4184
127  4888 6777
128  3867 5060
129  9010 6162
130  6578 4350
131  8945 4609
132  6421 1544
133  9640 787 
134  5349 6688
135  3663 7164
136  6088 4190
137  5868 1694
138  5516 6411
139  7054 6382
140  3836 7003
141  5620 6084
142  7993 5354
143  6350 6460
144  6925 2371
145  5428 7842
146  4817 7170
147  3613 7041
148  7125 5407
149  4904 9095
150  6053 5430
151  5261 6826
152  3887 7419
153  5102 5809
154  1446 5959
155  8560 3909
156  5635 8030
157  8310 4585
158  2509 1959
159  5530 7985
160  5758 5907
161  5732 7681
162  9174 3125
163  577  8881
164  4894 5238
165  1878 4423
166  4708 6773
167  5162 7493
168  7292 3595
169  617  3496
170  3993 5747
171  7594 3417
172  6880 9132
173  5457 8098
174  2919 7664
175  3846 1368
176  2138 5804
177  7600 5394
178  4704 6811
179  4570 7093
180  811  9502
181  6619 5529
182  5887 7194
183  5571 8008
184  5522 8393
185  7811 4893
186  5375 6891
187  3863 5328
188  8494 6482
189  5082 7817
190  8446 5302
191  6944 9990
192  586  9240
193  4520 6887
194  6706 6162
195  1728 9513
196  5193 8805
197  5046 8149
198  8689 5692
199  7716 7524
200  9351 5541
201  5308 1998
202  3928 7734
203  8337 8176
204  2544 7630
205  2265 5859
206  4408 6515
207  4100 8239
208  9186 5982
209  8060 4674
210  5684 4700
211  9348 3960
212  3291 7400
213  3651 7407
214  4715 9201
215  8541 6687
216  4699 8012
217  7686 4832
218  6824 3420
219  4019 3776
220  6949 9500
221  9722 262 
222  5212 5638
223  53   7546
224  9447 7609
225  5404 8076
226  4545 6136
227  7812 5052
228  5285 7856
229  8707 9461
230  2716 2612
231  4213 4138
232  6861 8391
233  5193 5585
234  2691 5673
235  6191 8752
236  4971 5971
237  813  3371
238  3008 9441
239  5130 5151
240  7720 4855
241  288  3886
242  465  2753
243  9300 4651
244  5431 1900
245  1834 1218
246  6683 7160
247  7352 3749
248  5415 7129
249  8066 5888
250  8256 2443
251  5252 4099
252  8698 4332
253  6152 8333
254  4505 5694
255  8033 6348
256  8799 1107
257  6570 5613
258  8121 7576
259  3920 8156
260  6699 7873
261  6164 7996
262  6129 4826
263  5556 8653
264  9477 3530
265  6095 7832
266  5178 6817
267  6205 9619
268  4248 815 
269  4141 7600
270  5454 6895
271  4817 5110
272  9602 4953
273  2943 7511
274  7160 426 
275  2340 6153
276  4494 6064
277  1813 4352
278  5011 7642
279  5342 7266
280  5232 6877
281  5229 5231
282  3429 6303
283  7618 4006
284  7922 7532
285  4769 9751
286  4843 7130
287  6005 3147
288  118  3644
289  8646 2725
290  5201 7023
291  2768 2180
292  5237 5566
293  5334 5892
294  8403 4632
295  5471 7320
296  5922 4588
297  7260 3488
298  386  7256
299  7439 2067
300  5659 5308
301  3190 8981
302  5186 5887
303  9007 8771
304  6328 7622
305  4316 28  
306  6262 9125
307  4747 7062
308  8653 2578
309  4930 7603
310  982  4433
311  6952 8288
312  7936 3697
313  4043 5857
314  6635 5012
315  4594 444 
316  5625 8289
317  1192 7942
318  2892 5846
319  4107 5322
320  5414 7079
321  799  2355
322  7487 4590
323  566  7770
324  2944 6603
325  3262 82  
326  5005 5674
327  9058 3482
328  9368 4327
329  2956 7968
330  6712 5436
331  8277 8865
332  8759 3818
333  6543 825 
334  4795 752 
335  4477 2529
336  9320 5022
337  8236 5279
338  7952 5135
339  4615 6353
340  2526 8996
341  5779 2698
342  7624 5584
343  1161 2918
344  8664 4415
345  470  438 
346  6218 5162
347  7143 4729
348  4854 8412
349  2602 6921
350  6786 7346
351  1235 8016
352  2279 2267
353  1027 1399
354  5207 6838
355  5648 7681
356  4757 4414
357  5733 7253
358  5541 7675
359  4699 6600
360  4371 3764
361  7143 7700
362  4886 5177
363  5841 1833
364  2836 5493
365  2946 2772
366  3032 5932
367  5374 8926
368  5443 7958
369  6526 8503
370  4787 2094
371  8838 5142
372  8298 8182
373  4721 7570
374  4422 7411
375  3229 426 
376  4224 7787
377  4456 9651
378  8595 7744
379  5029 2359
380  2108 819 
381  5279 4708
382  5142 7436
383  5493 8988
384  2072 5136
385  2129 2005
386  8204 5104
387  5197 6720
388  4621 7627
389  4525 9879
390  5350 6791
391  8497 7399
392  4817 8515
393  4018 8594
394  5889 6455
395  443  3250
396  4692 7487
397  7878 4704
398  4314 1873
399  8885 843 
400  4617 6886
401  8148 4910
402  6275 5925
403  1406 7457
404  8034 5404
405  4609 5819
406  6146 3521
407  5971 6104
408  5646 8108
409  1686 4850
410  5983 8536
411  1790 5229
412  9091 3990
413  4628 7381
414  3989 9757
415  7259 1808
416  2104 8494
417  7577 4795
418  5296 6298
419  3456 6270
420  9540 9533
421  9358 9564
422  3874 4871
423  8942 8991
424  8314 6138
425  7808 4845
426  1620 3819
427  3388 5608
428  5821 7510
429  6103 9690
430  3517 4945
431  3888 4683
432  5472 7680
433  6009 6301
434  7950 3582
435  8878 2515
436  4875 6856
437  6604 5305
438  7991 6562
439  4374 6597
440  4650 8085
441  6524 2708
442  7369 4811
443  7371 4974
444  6035 5613
445  6921 946 
446  2969 5429
447  5213 8242
448  3392 4372
449  6249 6876
450  7821 2224
451  150  4691
452  7588 7309
453  7700 5139
454  4609 6687
455  7556 4586
456  3533 9431
457  2206 4623
458  2605 355 
459  5782 8241
460  234  8564
461  8398 4320
462  7833 9295
463  5855 3491
464  6317 1241
465  4739 4449
466  1937 7413
467  9800 595 
468  4737 488 
469  5896 7518
470  9740 5067
471  6163 5376
472  3584 9954
473  3793 5380
474  5906 8577
475  2790 6589
476  5400 9254
477  6631 4763
478  6044 4060
479  3277 1545
480  4864 7523
481  9875 1857
482  6810 2828
483  5641 6073
484  4931 6456
485  7894 3956
486  6155 7281
487  8385 4214
488  4429 6338
489  4667 4577
490  2297 357 
491  3242 5200
492  3724 2803
493  5231 5638
494  8983 6069
495  3633 630 
496  5958 7704
497  4440 6707
498  6860 5312
499  4986 535 
500  4852 4289
501  5223 6098
502  5015 5641
503  3980 4223
504  6597 7215
505  7786 4790
506  4910 1256
507  1075 2763
508  4627 8767
509  7097 1067
510  5985 6297
511  7560 6572
512  5217 6391
513  4896 6413
514  6904 6127
515  7553 8207
516  6059 6849
517  7175 7466
518  9108 6523
519  85   157 
520  8130 6388
521  1800 8989
522  9160 6162
523  5458 8082
524  9850 2317
525  5387 4019
526  4243 2844
527  6649 895 
528  1342 116 
529  7919 5470
530  5348 6801
531  4618 3791
532  2862 7937
533  3997 7608
534  4069 7265
535  7368 5466
536  5478 4787
537  3000 2398
538  7887 5174
539  4329 6779
540  5520 6270
541  6612 7551
542  7970 5227
543  6025 7594
544  1997 3282
545  1359 6629
546  9236 4663
547  6633 2401
548  7277 4664
549  6511 8697
550  1068 4429
551  9794 3177
552  6828 9575
553  5572 7089
554  8347 4912
555  7416 1303
556  5300 7287
557  1354 6878
558  7328 5365
559  1351 4762
560  7788 4970
561  4153 7432
562  967  5878
563  8177 3569
564  8703 5148
565  3079 769 
566  7599 5150
567  5951 5765
568  7548 5442
569  7598 8559
570  6206 8038
571  4753 4864
572  998  4074
573  4682 5798
574  845  8934
575  1548 946 
576  3971 6588
577  5043 6583
578  8881 2606
579  8631 5426
580  9958 9316
581  6252 9679
582  7901 5065
583  9115 2381
584  4690 6556
585  7865 5992
586  7057 2139
587  5513 6067
588  5929 8664
589  5296 3628
590  1942 2708
591  8496 3989
592  4003 2695
593  7770 4262
594  6059 6957
595  4158 5071
596  9797 5585
597  4556 6323
598  4673 5413
599  7883 5978
600  185  2158
601  3727 2120
602  5182 9733
603  8301 4904
604  7466 4957
605  8199 2070
606  7725 4372
607  9775 534 
608  7734 4695
609  7723 3614
610  7960 2940
611  8322 4446
612  2962 8612
613  6091 7747
614  2500 7320
615  5441 6141
616  4916 7012
617  336  6631
618  6922 130 
619  414  6787
620  9852 3773
621  6338 5557
622  6275 6359
623  5599 7216
624  2597 9837
625  4796 9891
626  6880 4875
627  5300 7814
628  2437 2171
629  5717 5830
630  3778 6853
631  6002 9377
632  6182 7364
633  5064 8382
634  6551 8236
635  1499 8959
636  9372 4858
637  813  3914
638  8826 4953
639  6043 7099
640  5150 6922
641  5146 5150
642  5517 4958
643  1451 4953
644  8675 4005
645  6707 8264
646  7138 3280
647  2160 9094
648  8185 4906
649  4689 7174
650  8795 3245
651  6134 7777
652  138  6716
653  6006 1571
654  7336 4345
655  6654 6700
656  5179 5153
657  9002 5476
658  7633 4649
659  5319 9601
660  2418 8312
661  6961 4671
662  2039 2484
663  2311 8729
664  6034 7721
665  4539 7906
666  6379 2727
667  5347 6223
668  5560 7719
669  4523 7682
670  6213 8140
671  2365 8481
672  2008 9475
673  4140 3037
674  2903 3000
675  897  7809
676  5058 7940
677  6951 3747
678  3807 5254
679  5837 8973
680  1130 6694
681  1848 1082
682  9354 4345
683  8947 4507
684  6404 4310
685  7272 9348
686  4540 6181
687  1786 7637
688  191  5810
689  1493 6460
690  4909 5700
691  4990 6652
692  7018 9531
693  5223 6813
694  5394 7318
695  9097 5014
696  5073 7124
697  5770 1985
698  5093 7362
699  4909 5623
700  5897 7329
701  4141 6170
702  5374 1980
703  1623 3630
704  7325 5623
705  6956 5714
706  7491 5343
707  4879 8165
708  4700 6726
709  3554 1425
710  7379 3954
711  6505 2261
712  9205 1601
713  6388 7167
714  6235 7373
715  5015 8334
716  5763 8944
717  9461 4217
718  1351 3957
719  3520 7183
720  8880 5949
721  5219 6667
722  6504 6865
723  2804 6981
724  5587 32  
725  8326 4474
726  7867 2176
727  9035 3024
728  5820 6929
729  8520 4994
730  8658 4069
731  7807 5818
732  9037 8710
733  1362 368 
734  6524 8322
735  9306 7665
736  5825 7548
737  8518 5388
738  5420 7323
739  6520 4742
740  8921 2771
741  6480 3772
742  5426 6951
743  303  1259
744  7445 901 
745  8701 4752
746  2597 835 
747  4810 4875
748  6749 6397
749  4796 5707
750  5084 4331
751  8934 5419
752  8987 3157
753  5079 5968
754  4335 7039
755  6073 5530
756  5594 8075
757  7646 4816
758  6338 1036
759  6922 8820
760  9131 4206
761  4913 8443
762  4695 7953
763  5254 7159
764  7888 4794
765  7714 1519
766  7290 4633
767  7903 2205
768  5239 7472
769  5991 5857
770  7133 7582
771  3697 4866
772  4697 6650
773  8214 5523
774  2553 5870
775  3888 6714
776  82   8926
777  5372 6693
778  7550 8908
779  6202 5615
780  8473 4011
781  4886 5368
782  8404 3100
783  7701 8197
784  9364 4868
785  7379 7403
786  2690 5297
787  4206 8843
788  8588 3618
789  6742 3828
790  7910 5447
791  4804 7859
792  6373 43  
793  2544 4251
794  248  568 
795  9606 5286
796  3690 6221
797  6063 446 
798  9322 3471
799  8603 5456
800  9281 8264
801  4969 3966
802  1658 3723
803  3920 6159
804  1506 5551
805  5155 6350
806  8614 5523
807  57   9899
808  8043 4260
809  6603 7656
810  8995 4407
811  6939 6514
812  7570 7143
813  8293 6524
814  2089 3475
815  5213 9028
816  2584 3370
817  8534 3253
818  7407 5007
819  4219 6518
820  6527 7391
821  3571 156 
822  5525 6749
823  1496 7204
824  109  4358
825  3145 5732
826  4183 4716
827  9237 849 
828  2615 4103
829  3632 5611
830  5181 8338
831  8225 3319
832  8116 4056
833  7287 5323
834  7329 6286
835  7913 1392
836  166  1058
837  766  8946
838  5101 5663
839  5484 7593
840  3932 3288
841  3524 4071
842  9773 2765
843  7740 3435
844  5930 6470
845  2691 510 
846  5111 6178
847  426  3797
848  4857 5743
849  4352 7620
850  2008 7946
851  967  2914
852  4596 1368
853  1033 3976
854  4847 7168
855  5262 6938
856  2999 7009
857  4622 8642
858  1964 2729
859  3271 9   
860  3894 6265
861  7226 4181
862  5740 9486
863  6351 2275
864  1679 4515
865  3997 671 
866  5509 5959
867  6187 5378
868  9695 9530
869  4549 4615
870  2018 7569
871  8966 3950
872  5665 7938
873  4709 7134
874  9544 7203
875  7016 8693
876  4697 27  
877  5381 7130
878  7277 7111
879  555  2296
880  7482 5808
881  7088 3896
882  862  4839
883  4105 6022
884  8578 4881
885  5069 8480
886  2995 6909
887  6738 7941
888  6244 2097
889  5614 8024
890  5542 5305
891  5081 5166
892  5651 9623
893  1775 9297
894  8003 1359
895  3693 4673
896  964  1062
897  6856 2986
898  9206 6544
899  5171 4741
900  4296 1469
901  5930 5473
902  157  3363
903  5004 6455
904  6947 622 
905  3278 7965
906  8107 1450
907  4854 3543
908  9933 3053
909  7883 3691
910  8492 1248
911  3478 8305
912  6709 7742
913  7541 5033
914  105  7377
915  7750 4248
916  6477 8105
917  5259 5497
918  6584 6900
919  5448 4857
920  3259 3607
921  6376 8258
922  8425 4630
923  9671 5479
924  7335 5348
925  8905 2109
926  5230 4122
927  5267 8555
928  9359 567 
929  6882 3368
930  5334 7088
931  8720 4866
932  8857 3911
933  2489 4526
934  5136 5236
935  6285 4894
936  7493 577 
937  8659 3959
938  2306 1712
939  2903 6494
940  9400 666 
941  5253 5935
942  6535 6026
943  5688 2860
944  7513 4500
945  5772 6781
946  4925 5806
947  7862 4032
948  4356 9789
949  1690 8597
950  4781 6787
951  8232 3585
952  8174 4178
953  6719 1519
954  5784 7225
955  8933 4032
956  4500 7813
957  4066 8733
958  5447 8128
959  3710 6581
960  6252 6939
961  8716 4890
962  3876 2543
963  8242 7077
964  9836 978 
965  9004 3324
966  5021 5672
967  4436 7416
968  5798 4604
969  9869 5285
970  1867 7841
971  1517 2761
972  7547 802 
973  5693 6831
974  5282 7003
975  6191 9423
976  8680 271 
977  6805 5202
978  8019 4968
979  4503 8531
980  5055 6069
981  4629 6555
982  5946 8009
983  3405 8219
984  2122 9170
985  4415 6587
986  8636 4942
987  776  7695
988  4334 1821
989  4697 7243
990  6610 7077
991  7277 4635
992  8392 5672
993  9692 3073
994  6692 7606
995  9968 3417
996  7272 6053
997  4241 6065
998  4536 8127
999  8300 4949
1000 2921 877 
1001 4445 7958
1002 9577 9757
1003 2991 7431
1004 4107 6126
1005 2219 7609
1006 3546 5606
1007 9005 2380
1008 5398 7309
1009 6234 4861
1010 9507 714 
1011 4437 7900
1012 7704 7119
1013 6341 8282
1014 6647 9871
1015 5806 7317
1016 1639 5949
1017 8156 3897
1018 8479 3018
1019 5377 7316
1020 8285 4699
1021 3847 4923
1022 2538 975 
1023 7314 9   
1024 5648 6553
1025 6288 8942
1026 8992 4099
1027 6079 4821
1028 5995 4390
1029 6002 1802
1030 5119 7873
1031 4985 7346
1032 6720 3342
1033 6687 7598
1034 3124 2804
1035 9359 4192
1036 2835 5634
1037 1429 3588
1038 1846 263 
1039 6382 8769
1040 5018 8172
1041 5276 7320
1042 8568 5870
1043 4104 6899
1044 6167 8143
1045 3997 583 
1046 5502 8911
1047 7527 7212
1048 9426 7847
1049 431  9116
1050 239  7110
1051 8449 7205
1052 2337 5929
1053 8127 3586
1054 6276 5944
1055 7044 4502
1056 7502 713 
1057 5340 5771
1058 5010 5381
1059 1517 7951
1060 351  9616
1061 5577 9770
1062 1722 2024
1063 7569 4226
1064 4960 8656
1065 7732 3781
1066 5446 6171
1067 8590 1597
1068 3806 1638
1069 4899 8367
1070 5312 6592
1071 6095 7949
1072 7759 4825
1073 6637 5518
1074 9562 144 
1075 4625 7181
1076 4575 8959
1077 5205 4661
1078 7366 3104
1079 5344 7421
1080 4799 5902
1081 3954 6990
1082 5126 6186
1083 7052 6087
1084 5060 7021
1085 3963 6577
1086 6214 7085
1087 5432 5772
1088 5247 6809
1089 977  2384
1090 9063 4808
1091 9896 4517
1092 5213 8848
1093 8635 765 
1094 780  9474
1095 8637 8348
1096 5622 3927
1097 7805 4671
1098 6250 9158
1099 1960 8191
1100 4086 6821
1101 4285 5750
1102 243  9624
1103 7066 7778
1104 2787 3465
1105 4611 7465
1106 8609 5682
1107 5157 7611
1108 7568 9454
1109 71   7357
1110 5398 4576
1111 8083 4764
1112 7081 52  
1113 5328 8388
1114 8828 3356
1115 7390 4005
1116 6671 5168
1117 4329 5229
1118 4927 8715
1119 3631 7629
1120 7401 5076
1121 6854 1638
1122 3992 7910
1123 8209 4555
1124 3465 6039
1125 2870 7969
1126 6124 2569
1127 7484 5643
1128 833  4058
1129 5481 8002
1130 7879 4781
1131 6106 9270
1132 8938 7257
1133 5007 8577
1134 5151 3085
1135 665  7809
1136 520  4252
1137 2816 4380
1138 5983 8683
1139 4824 3902
1140 6333 6599
1141 3583 7878
1142 6917 2631
1143 4518 9919
1144 8987 7813
1145 5631 6531
1146 871  3560
1147 4443 2621
1148 5571 7823
1149 5909 3439
1150 6281 7566
1151 9015 2986
1152 5687 2321
1153 8149 7521
1154 1171 229 
1155 9090 1110
1156 7215 4904
1157 6398 2736
1158 5753 8969
1159 9412 5308
1160 6267 7739
1161 9462 8940
1162 6037 8759
1163 4768 2066
1164 2844 4513
1165 4121 1684
1166 6397 2009
1167 5347 5722
1168 5159 2871
1169 5198 7836
1170 1306 5845
1171 5423 3510
1172 3798 5837
1173 5299 7056
1174 184  7056
1175 4347 5529
1176 2823 8914
1177 116  2507
1178 6860 9029
1179 7952 4823
1180 3886 5697
1181 8355 1470
1182 7023 7143
1183 2842 5681
1184 9082 273 
1185 9412 6453
1186 6610 1045
1187 6559 7072
1188 8778 5598
1189 4280 6258
1190 1462 3003
1191 5631 5905
1192 8349 4205
1193 5973 5777
1194 77   5014
1195 1523 6440
1196 3961 555 
1197 6067 4913
1198 1072 9757
1199 7675 5209
1200 4072 8039
1201 6115 4125
1202 5603 8177
1203 4451 3950
1204 7793 4975
1205 6054 6643
1206 7482 4629
1207 3097 8209
1208 3315 9030
1209 8543 5650
1210 561  7458
1211 7662 2171
1212 3748 6348
1213 9556 7644
1214 2217 5745
1215 9988 4022
1216 9251 3069
1217 8446 4639
1218 2052 5814
1219 4952 6699
1220 2337 2379
1221 5026 7510
1222 6098 5367
1223 4093 3825
1224 631  1822
1225 6059 6407
1226 6179 5654
1227 174  1989
1228 5594 6153
1229 1500 4673
1230 5160 8594
1231 4421 7798
1232 7519 7317
1233 6765 5162
1234 8463 7675
1235 6    3945
1236 5360 5702
1237 7594 5160
1238 6863 5400
1239 2873 4127
1240 7191 1590
1241 8330 9049
1242 5019 6061
1243 7005 5708
1244 5425 7766
1245 3343 3111
1246 8139 6392
1247 5520 3438
1248 1012 6320
1249 7654 659 
1250 5991 640 
1251 3410 684 
1252 4903 4603
1253 4425 5640
1254 5256 4928
1255 8531 5018
1256 5926 5716
1257 1051 4305
1258 5981 5015
1259 7535 6409
1260 8301 7689
1261 8687 3600
1262 7975 4437
1263 6518 3735
1264 9419 3461
1265 4557 1177
1266 7323 4882
1267 5503 5936
1268 8527 4351
1269 2782 6205
1270 9252 4880
1271 1454 1825
1272 9780 8069
1273 6096 6809
1274 6320 199 
1275 4887 6745
1276 325  7497
1277 1985 8216
1278 8772 7017
1279 4373 5755
1280 6929 2439
1281 5587 558 
1282 6639 5394
1283 5600 6532
1284 3257 6530
1285 4943 7410
1286 7376 1939
1287 6441 1510
1288 8422 1232
1289 7214 9846
1290 5656 8148
1291 4512 4507
1292 8409 5459
1293 3720 7157
1294 3696 5167
1295 7711 3778
1296 6445 7167
1297 3834 5010
1298 5500 5598
1299 7668 4020
1300 3617 1073
1301 4976 7963
1302 6054 8086
1303 5786 5840
1304 8034 8698
1305 6673 9957
1306 5175 9232
1307 6373 4522
1308 8836 5160
1309 5356 7180
1310 9434 2172
1311 4976 4129
1312 5319 9125
1313 5982 9093
1314 3561 7494
1315 5545 2919
1316 1457 5455
1317 9406 6689
1318 3928 8904
1319 9973 7610
1320 7337 3413
1321 7611 9561
1322 7962 6563
1323 5215 6161
1324 7937 8275
1325 8952 4909
1326 6784 990 
1327 5274 8070
1328 4187 7548
1329 4295 8329
1330 8128 8182
1331 4576 1152
1332 1256 4098
1333 8846 6323
1334 6532 4868
1335 5662 8168
1336 6649 3770
1337 5213 6529
1338 5211 4651
1339 2109 7864
1340 6860 5271
1341 7203 5858
1342 4663 4669
1343 4739 5800
1344 4648 6259
1345 7396 4651
1346 4208 5233
1347 8024 4873
1348 3869 6226
1349 1776 6463
1350 3630 5854
1351 6011 2226
1352 7180 5104
1353 6022 7601
1354 6109 6170
1355 9716 5198
1356 6874 6872
1357 7728 4267
1358 4758 5901
1359 5371 6904
1360 5676 8390
1361 4002 6314
1362 8332 3103
1363 4951 7733
1364 8370 9801
1365 5311 6164
1366 7234 4248
1367 6732 3913
1368 6435 8430
1369 1661 7336
1370 7399 8826
1371 3760 9993
1372 7780 6738
1373 8286 4117
1374 6866 5723
1375 4141 1403
1376 9589 3742
1377 8355 3071
1378 4060 7278
1379 4640 5545
1380 5279 7424
1381 7811 4406
1382 5455 7138
1383 5235 7901
1384 3686 416 
1385 5323 5949
1386 3956 5415
1387 5793 3841
1388 5432 7871
1389 6328 6975
1390 8437 3193
1391 1522 8355
1392 5791 8018
1393 1779 4135
1394 4752 7228
1395 5504 4171
1396 9751 7835
1397 4764 5804
1398 5145 7126
1399 7278 5032
1400 5162 8354
1401 5380 8445
1402 563  8530
1403 1332 588 
1404 8115 3123
1405 6336 8250
1406 9189 7032
1407 8464 4544
1408 5749 7327
1409 6717 6609
1410 8285 5405
1411 7304 6998
1412 4236 5909
1413 216  1321
1414 5608 8313
1415 5753 5393
1416 4603 7385
1417 5205 1279
1418 6027 1953
1419 5764 5836
1420 7673 5166
1421 4576 6852
1422 5849 6703
1423 4556 5482
1424 7915 4725
1425 7538 8287
1426 7753 6214
1427 4725 6774
1428 2508 8410
1429 6304 1614
1430 5868 5772
1431 4923 7110
1432 4940 7064
1433 5030 6686
1434 5477 9787
1435 7035 7647
1436 3051 4975
1437 6278 4654
1438 2076 8229
1439 6748 3896
1440 8926 4698
1441 8034 5350
1442 2125 5667
1443 4546 2625
1444 9416 4937
1445 5793 7570
1446 5164 7198
1447 5608 1755
1448 5487 5925
1449 2461 3941
1450 764  2822
1451 4396 6694
1452 5848 7469
1453 6205 1146
1454 7558 2443
1455 6147 725 
1456 1286 7234
1457 1079 6892
1458 5170 5195
1459 8997 4297
1460 6790 2568
1461 8437 4695
1462 2367 379 
1463 1927 7004
1464 5748 4530
1465 9735 136 
1466 6219 2445
1467 4744 4899
1468 4285 4253
1469 7511 5215
1470 4535 2897
1471 7783 6700
1472 7778 4617
1473 7313 6659
1474 4166 9304
1475 6410 4890
1476 5619 8586
1477 5230 4503
1478 8345 5865
1479 7292 5361
1480 2930 7779
1481 6003 1041
1482 3928 4805
1483 5724 6421
1484 7892 5863
1485 7262 752 
1486 6157 925 
1487 4958 8114
1488 4181 6040
1489 9089 4159
1490 8687 6476
1491 5749 5519
1492 3883 5535
1493 1147 1164
1494 5493 7624
1495 8786 2846
1496 5297 7950
1497 7997 2833
1498 5397 8788
1499 3364 7836
1500 6292 6101
1501 2000 1411
1502 4560 8887
1503 3406 7974
1504 7987 5071
1505 3234 6818
1506 6121 8473
1507 3334 8293
1508 4660 6320
1509 9056 315 
1510 6939 7598
1511 4429 6040
1512 4018 678 
1513 8161 3850
1514 6190 5763
1515 5293 6868
1516 5546 8995
1517 5339 5155
1518 4723 8414
1519 2264 9748
1520 5228 6754
1521 9690 3189
1522 5869 7810
1523 7934 5877
1524 5718 7062
1525 7834 631 
1526 9849 2808
1527 6475 7555
1528 7446 1605
1529 148  4970
1530 5468 4724
1531 9541 2874
1532 3729 9818
1533 9629 2863
1534 4961 7841
1535 7735 5689
1536 7579 9178
1537 1764 8079
1538 6611 7889
1539 4776 5642
1540 6863 6090
1541 7789 4432
1542 2244 278 
1543 4910 5024
1544 7024 5901
1545 4968 7461
1546 7766 4032
1547 4416 156 
1548 4974 7600
1549 5375 6025
1550 8889 6630
1551 7253 3848
1552 8255 4780
1553 5401 4411
1554 7842 4611
1555 3435 8590
1556 4318 5267
1557 5780 5828
1558 9905 8015
1559 7591 4233
1560 6012 6174
1561 5971 6362
1562 1717 8695
1563 5321 5718
1564 6386 7813
1565 7933 8683
1566 4740 813 
1567 4882 7066
1568 6876 7343
1569 7984 4794
1570 2858 2851
1571 7323 1084
1572 7025 7880
1573 5926 7464
1574 6615 5290
1575 4115 4337
1576 7969 4846
1577 6973 6347
1578 6850 3865
1579 4813 3123
1580 5234 6079
1581 2178 9144
1582 931  647 
1583 7766 4607
1584 3774 6223
1585 5882 8890
1586 6652 7196
1587 3459 6869
1588 5223 5413
1589 5783 8922
1590 4662 7270
1591 614  7340
1592 6046 8568
1593 8552 4247
1594 5790 1116
1595 4285 8620
1596 2913 8616
1597 4306 316 
1598 7776 5064
1599 9923 2500
1600 6670 3592
1601 8088 5951
1602 5360 6514
1603 9245 5373
1604 7892 3765
1605 7985 5888
1606 5437 6453
1607 7000 3641
1608 8010 3864
1609 7521 6789
1610 5561 5550
1611 2280 4860
1612 7953 4751
1613 8291 9144
1614 665  9917
1615 5493 6862
1616 6991 685 
1617 6887 2272
1618 7562 689 
1619 603  376 
1620 5975 331 
1621 8600 9742
1622 5587 4258
1623 8853 4518
1624 6712 7627
1625 3999 8117
1626 1670 9402
1627 8078 5020
1628 2954 8580
1629 1857 3692
1630 6022 6824
1631 3108 7909
1632 5816 4326
1633 6762 2285
1634 9019 5167
1635 7625 5109
1636 6840 1091
1637 9883 874 
1638 3327 8980
1639 6763 4792
1640 6205 6734
1641 8806 3496
1642 4976 5439
1643 5594 8890
1644 4830 8130
1645 8371 4932
1646 5044 7595
1647 5197 6023
1648 3115 9339
1649 6189 5355
1650 1961 673 
1651 8275 4113
1652 4029 7733
1653 18   2513
1654 8317 5782
1655 7204 5581
1656 8688 2253
1657 8875 9412
1658 8208 3620
1659 8979 4637
1660 693  3361
1661 3732 6978
1662 1268 7595
1663 1992 4564
1664 4868 7107
1665 5976 2283
1666 2242 5636
1667 1893 7229
1668 9378 2385
1669 6252 6901
1670 5504 7085
1671 3137 1061
1672 9916 9377
1673 5988 5110
1674 4724 5235
1675 5208 7020
1676 5935 4809
1677 2699 8687
1678 5687 3896
1679 3658 7944
1680 4352 3552
1681 497  4947
1682 8427 5347
1683 9640 529 
1684 6102 924 
1685 7526 4335
1686 4609 7286
1687 6343 5606
1688 5462 9189
1689 9054 5221
1690 5967 7012
1691 3335 6888
1692 7980 5238
1693 6085 7012
1694 4430 6634
1695 1354 4715
1696 9524 9698
1697 2873 6171
1698 5312 6782
1699 4307 6123
1700 5896 9359
1701 5474 1370
1702 7229 4540
1703 4879 4429
1704 7802 4590
1705 5363 7025
1706 7905 5103
1707 5094 5566
1708 4519 6646
1709 509  2053
1710 4190 7736
1711 6696 8506
1712 8013 4673
1713 5321 7311
1714 4153 2450
1715 9227 4293
1716 5588 8116
1717 4975 7041
1718 8195 520 
1719 5892 7939
1720 7373 4467
1721 5882 8679
1722 8643 3974
1723 7441 4646
1724 8725 3392
1725 9434 1306
1726 665  7800
1727 5618 2382
1728 9023 3916
1729 1086 8209
1730 2906 6053
1731 1645 947 
1732 4561 4816
1733 4219 7580
1734 6094 7159
1735 3518 7419
1736 7640 6173
1737 6994 5891
1738 4810 9866
1739 6205 8704
1740 8927 4209
1741 4894 4541
1742 5650 8998
1743 12   1220
1744 5661 5592
1745 4249 5283
1746 8951 7588
1747 6244 9299
1748 5375 6633
1749 3799 956 
1750 6146 4040
1751 5420 5773
1752 3920 6428
1753 3904 6065
1754 8883 6383
1755 7001 6644
1756 5812 6446
1757 3760 7148
1758 2742 7299
1759 6477 7606
1760 1960 4718
1761 7408 4517
1762 7963 6939
1763 8046 3941
1764 5648 2762
1765 5138 5196
1766 5282 7112
1767 4986 4906
1768 3574 5546
1769 5534 2766
1770 8886 4187
1771 6603 6693
1772 9232 1469
1773 9403 1104
1774 8672 1662
1775 4407 7110
1776 2108 4339
1777 3134 3949
1778 5599 9244
1779 2357 239 
1780 845  7074
1781 4604 9046
1782 3391 4667
1783 5708 7966
1784 7450 4938
1785 4455 6517
1786 4428 8301
1787 7181 5978
1788 9959 690 
1789 3333 5338
1790 7519 4693
1791 7915 4583
1792 4371 7612
1793 4374 5101
1794 5839 7843
1795 5172 6529
1796 8103 7897
1797 2769 9270
1798 6336 7658
1799 6182 4772
1800 8003 4057
1801 7880 4204
1802 9182 3651
1803 6675 3632
1804 4866 6920
1805 5061 1831
1806 3158 8009
1807 4965 6767
1808 5104 6062
1809 8029 5370
1810 6022 7536
1811 1674 3106
1812 8061 4093
1813 8217 5329
1814 4557 6405
1815 6095 7883
1816 9700 2042
1817 2532 4191
1818 3632 7815
1819 4775 7459
1820 8461 4755
1821 7265 5373
1822 5914 4469
1823 5968 9695
1824 2545 4158
1825 1059 4134
1826 5453 7914
1827 7828 4654
1828 4820 4688
1829 5240 8969
1830 2979 239 
1831 1520 9904
1832 4165 7086
1833 5804 7973
1834 4979 9250
1835 6416 7957
1836 5833 6014
1837 4110 5749
1838 4640 7433
1839 6947 7015
1840 473  8264
1841 4238 3394
1842 7733 5964
1843 2525 9381
1844 7456 6952
1845 4554 6856
1846 4859 7448
1847 5194 7751
1848 7980 82  
1849 5931 6383
1850 3895 5229
1851 4968 6896
1852 4836 8715
1853 6552 5940
1854 3725 5338
1855 8322 6176
1856 9461 8330
1857 4648 5842
1858 3860 2195
1859 5195 8405
1860 7308 6442
1861 4399 7120
1862 8765 4753
1863 2709 8276
1864 9518 2213
1865 5623 6908
1866 6005 7127
1867 8318 5154
1868 6890 4396
1869 8668 5480
1870 4966 5940
1871 9243 4682
1872 7484 2861
1873 7191 3597
1874 2654 5613
1875 5099 9456
1876 6900 3032
1877 8951 1460
1878 1070 273 
1879 4559 4345
1880 2556 1117
1881 5933 7026
1882 4850 7251
1883 3100 4775
1884 2057 7737
1885 2347 7955
1886 6248 5772
1887 883  3933
1888 8134 5276
1889 6838 3995
1890 8881 9182
1891 1588 8011
1892 3070 8310
1893 5229 4891
1894 5098 4399
1895 8048 9883
1896 4841 7454
1897 5001 177 
1898 4869 6421
1899 6121 5080
1900 8639 7669
1901 8059 8067
1902 3680 6299
1903 8460 3471
1904 9969 2695
1905 7906 9864
1906 7516 9308
1907 3964 2312
1908 655  9582
1909 5919 7967
1910 4384 9308
1911 4554 7208
1912 1332 7116
1913 9044 9525
1914 4730 6624
1915 3848 9035
1916 7909 4108
1917 4336 5692
1918 5832 1989
1919 6151 6548
1920 558  2890
1921 5350 6086
1922 3233 6512
1923 5139 5112
1924 9017 8987
1925 6114 7313
1926 6222 438 
1927 9731 3791
1928 6751 4189
1929 5849 7967
1930 5094 3658
1931 8316 4380
1932 6367 7887
1933 5053 5962
1934 4955 7885
1935 6405 9518
1936 6417 4441
1937 8198 4653
1938 9026 4719
1939 5049 5859
1940 9438 5560
1941 5270 6709
1942 7306 7522
1943 6458 7640
1944 8077 1100
1945 8533 5465
1946 5250 5672
1947 3192 4882
1948 6959 383 
1949 8201 4125
1950 4487 2108
1951 2390 5816
1952 7164 574 
1953 6215 9613
1954 7975 5401
1955 5263 7997
1956 4909 8072
1957 4498 5202
1958 6865 4183
1959 7924 2811
1960 6888 7019
1961 7806 5079
1962 7824 9275
1963 2598 2722
1964 8724 4295
1965 7185 4882
1966 4549 6174
1967 5638 8562
1968 5309 893 
1969 8629 4790
1970 9977 5586
1971 6967 4765
1972 5355 7395
1973 3979 800 
1974 5042 8445
1975 3993 7995
1976 4874 5149
1977 9888 7688
1978 5686 6528
1979 7258 7886
1980 3737 4414
1981 9958 4006
1982 6836 2968
1983 7099 6901
1984 6661 7852
1985 9685 8599
1986 6307 231 
1987 6042 7056
1988 5768 1008
1989 6530 8273
1990 5750 7573
1991 2255 7469
1992 7271 3797
1993 3929 9279
1994 7352 785 
1995 1123 9642
1996 4974 7501
1997 5893 7961
1998 4062 9745
1999 9760 7140
2000 3188 7249
2001 3103 6045
2002 8421 912 
2003 5640 5484
2004 8776 9014
2005 5058 7358
2006 9969 4674
2007 7290 7112
2008 4245 5823
2009 7811 4572
2010 544  9801
2011 4337 3515
2012 761  287 
2013 7887 7423
2014 7575 4361
2015 3040 4958
2016 2653 1306
2017 4935 6423
2018 6729 8846
2019 7726 4094
2020 5271 5564
2021 9576 821 
2022 7095 6153
2023 6077 9131
2024 5359 8028
2025 3200 3620
2026 8096 5731
2027 4489 5690
2028 7851 5060
2029 7942 1729
2030 3791 4416
2031 6540 8313
2032 4926 5469
2033 3315 5455
2034 5643 1620
2035 9211 3688
2036 7112 8134
2037 8806 5883
2038 9617 2491
2039 6772 4452
2040 7681 6145
2041 4539 6336
2042 8655 5164
2043 8873 5556
2044 8507 6994
2045 9244 4969
2046 4707 6879
2047 5690 8389
2048 1458 757 
2049 6488 7466
2050 5586 6573
2051 8772 5702
2052 8595 3443
2053 8159 4004
2054 8116 5282
2055 5411 5451
2056 3725 3882
2057 7531 5395
2058 7468 7779
2059 8841 4481
2060 5886 8533
2061 4048 5091
2062 5935 8000
2063 3184 1589
2064 5094 7629
2065 5634 7512
2066 7968 4707
2067 8390 7578
2068 5917 5306
2069 8949 3949
2070 6502 2021
2071 5466 6992
2072 8946 4345
2073 9899 1855
2074 5088 5650
2075 1166 5670
2076 5293 6461
2077 4861 6392
2078 5272 8961
2079 8401 1840
2080 5726 8513
2081 2109 8295
2082 3624 9506
2083 5447 5414
2084 2392 4162
2085 3637 8432
2086 7657 4869
2087 6133 2003
2088 6272 7388
2089 9507 1877
2090 5951 8364
2091 3282 2269
2092 4568 5410
2093 7648 4874
2094 7679 1566
2095 7062 5887
2096 4865 6593
2097 3774 6491
2098 9785 9021
2099 5220 582 
2100 7935 9572
2101 6158 4398
2102 8248 5900
2103 4859 7551
2104 5631 5877
2105 6760 7449
2106 46   7185
2107 8354 4201
2108 2105 7904
2109 3894 9404
2110 3992 341 
2111 2635 8691
2112 6443 8422
2113 8901 5610
2114 7647 8145
2115 5128 4188
2116 2925 8095
2117 2230 4223
2118 9131 8563
2119 5923 4792
2120 5255 8501
2121 5883 8564
2122 2468 7663
2123 4551 4632
2124 6774 370 
2125 7688 4882
2126 6762 7222
2127 5648 6413
2128 5166 8150
2129 2462 6465
2130 6330 1082
2131 5954 8914
2132 5829 8556
2133 8230 9845
2134 8511 5498
2135 6506 5626
2136 7722 4800
2137 8774 239 
2138 3008 8189
2139 4827 5244
2140 7725 3319
2141 6018 8284
2142 4749 6833
2143 9919 8717
2144 8136 4934
2145 8497 5486
2146 8423 5864
2147 5767 8802
2148 8011 2471
2149 9998 5770
2150 6943 295 
2151 8352 1114
2152 4654 6034
2153 6015 4940
2154 4445 3607
2155 7416 5538
2156 8164 4598
2157 4838 7382
2158 2826 6039
2159 5299 7776
2160 8915 3178
2161 6280 4527
2162 8581 6659
2163 4982 3833
2164 5504 6587
2165 6919 8474
2166 3190 81  
2167 6464 4107
2168 8454 2225
2169 5704 8229
2170 7281 4970
2171 8449 4656
2172 9001 4195
2173 8503 4605
2174 8950 3794
2175 6109 3458
2176 2483 4406
2177 4466 5919
2178 7385 3228
2179 9471 6056
2180 6742 4046
2181 2438 9765
2182 6965 5614
2183 7378 6733
2184 7354 4955
2185 8964 1874
2186 8713 3798
2187 564  6698
2188 2865 7926
2189 1711 7753
2190 5357 7561
2191 4654 6966
2192 1759 7900
2193 2690 5788
2194 161  1787
2195 4348 7405
2196 2651 226 
2197 4203 7986
2198 267  499 
2199 9111 5508
2200 7896 4808
2201 3514 4436
2202 9002 9159
2203 6041 7129
2204 8337 5313
2205 8931 7477
2206 8200 5011
2207 7482 9835
2208 1431 6009
2209 9511 4132
2210 4905 3076
2211 1875 52  
2212 4884 7671
2213 5764 5681
2214 4576 781 
2215 4394 8627
2216 6599 9982
2217 5748 156 
2218 2041 1834
2219 9706 5182
2220 5451 1579
2221 6092 8302
2222 5521 5821
2223 6245 9593
2224 5    2421
2225 1299 6675
2226 5108 8457
2227 3518 7344
2228 5958 8493
2229 4782 7701
2230 7887 270 
2231 3909 8220
2232 9330 5323
2233 7751 4903
2234 7234 2725
2235 8195 5828
2236 7540 4817
2237 8843 4224
2238 6699 9755
2239 5378 7320
2240 2630 529 
2241 6733 7081
2242 8734 4922
2243 8326 5853
2244 1986 1625
2245 6316 3522
2246 6518 8685
2247 2851 4298
2248 547  7169
2249 3403 4489
2250 8281 5708
2251 2291 5538
2252 5526 8841
2253 6296 8190
2254 1430 5846
2255 5706 7085
2256 4563 7089
2257 5331 7791
2258 7826 4851
2259 8886 4829
2260 560  7289
2261 3068 9690
2262 2133 7057
2263 4791 2029
2264 4970 5088
2265 139  4849
2266 5187 7276
2267 408  1906
2268 4695 2673
2269 7958 3643
2270 2937 2555
2271 6449 8310
2272 5934 8052
2273 1155 4378
2274 7500 7375
2275 4822 6199
2276 9017 1093
2277 626  1381
2278 6388 7956
2279 6852 5115
2280 6946 4279
2281 8690 6726
2282 6430 6512
2283 3932 5806
2284 7612 4704
2285 5061 5526
2286 9598 5593
2287 8477 7279
2288 807  9064
2289 6536 7888
2290 9325 7851
2291 6810 7855
2292 2863 17  
2293 504  9843
2294 6918 6190
2295 5027 6211
2296 9438 2741
2297 5123 5888
2298 7831 6251
2299 3075 5217
2300 9885 2026
2301 2925 4880
2302 5187 5340
2303 5837 7571
2304 4000 5385
2305 2545 6893
2306 8579 5905
2307 5405 9935
2308 9144 8703
2309 6553 6492
2310 7439 7947
2311 888  1132
2312 7466 4962
2313 7183 1302
2314 714  8357
2315 8321 6851
2316 4890 2242
2317 7170 5514
2318 7597 2876
2319 6726 6914
2320 7569 7671
2321 3198 2131
2322 7614 4830
2323 5260 5436
2324 4833 7915
2325 7840 9307
2326 9936 522 
2327 5017 6949
2328 6544 8892
2329 3937 9929
2330 4307 6410
2331 4668 5926
2332 9226 4063
2333 4851 6332
2334 5101 8045
2335 7768 8434
2336 5455 7096
2337 7925 5403
2338 1945 9523
2339 5832 1216
2340 6161 6465
2341 4363 2237
2342 6161 5754
2343 9136 1400
2344 3559 7869
2345 5634 6353
2346 190  5057
2347 8601 4651
2348 7820 4799
2349 5994 7035
2350 5632 5694
2351 3920 9383
2352 8095 8252
2353 7735 4068
2354 7615 4649
2355 8923 4486
2356 4568 7801
2357 7588 4314
2358 4917 6730
2359 5001 6014
2360 9140 2825
2361 5481 6758
2362 4864 7381
2363 2907 8206
2364 7140 6065
2365 3382 4367
2366 914  1009
2367 7133 4064
2368 574  3435
2369 7209 3984
2370 8852 3484
2371 9749 6282
2372 5824 7280
2373 4353 8253
2374 2689 3371
2375 4468 7057
2376 659  747 
2377 5315 7800
2378 8959 5703
2379 4828 8336
2380 4812 762 
2381 3943 5656
2382 5607 7353
2383 6809 3271
2384 7226 3696
2385 5246 5350
2386 5783 5715
2387 3987 5215
2388 1126 8540
2389 9073 3838
2390 7284 1153
2391 8422 1621
2392 2351 8394
2393 5109 2462
2394 9647 6507
2395 5269 5450
2396 7631 3721
2397 5998 9955
2398 1450 8224
2399 1735 8681
2400 2278 7273
2401 4022 5974
2402 8258 4737
2403 3801 5147
2404 4935 7312
2405 8635 7006
2406 4435 4429
2407 4876 6519
2408 752  6956
2409 6149 4830
2410 6791 7331
2411 3014 7529
2412 2201 5311
2413 8522 5072
2414 3780 5711
2415 1315 5845
2416 7829 3056
2417 5441 5191
2418 9767 9238
2419 5111 5208
2420 7386 1529
2421 6292 5264
2422 7224 7400
2423 3139 1078
2424 5063 8422
2425 6200 7727
2426 4377 6202
2427 8550 793 
2428 2843 9739
2429 6333 7908
2430 4919 8281
2431 3420 9599
2432 753  7657
2433 7529 5064
2434 407  2234
2435 4394 1178
2436 7375 4818
2437 7612 3468
2438 7355 3997
2439 6441 6528
2440 8901 6175
2441 2371 9068
2442 7741 5853
2443 6111 7783
2444 4255 7528
2445 5138 5996
2446 9308 5910
2447 9937 7074
2448 7726 3867
2449 7345 7715
2450 6533 8535
2451 7611 4713
2452 6570 3990
2453 4084 7032
2454 9423 4181
2455 5221 754 
2456 8801 4590
2457 2149 5172
2458 2766 7930
2459 4598 4043
2460 5417 7544
2461 5881 7363
2462 9067 2963
2463 6660 4649
2464 8816 6953
2465 3491 7659
2466 8138 4857
2467 4513 1729
2468 8128 593 
2469 4400 3745
2470 6989 8764
2471 758  9138
2472 5865 9713
2473 2151 1393
2474 8387 8231
2475 5108 8045
2476 2548 8268
2477 2410 6833
2478 3632 3843
2479 7943 4984
2480 6305 1285
2481 4194 7424
2482 2260 1958
2483 6499 4166
2484 3368 357 
2485 453  901 
2486 5780 8856
2487 1403 9138
2488 4252 5174
2489 999  1490
2490 5893 7213
2491 7489 4380
2492 8513 4640
2493 2899 9387
2494 8935 9161
2495 9403 3328
2496 8978 3021
2497 5355 6820
2498 9479 4783
2499 5741 7087
2500 4776 5792
2501 170  431 
2502 7234 9046
2503 8471 8821
2504 4604 6171
2505 4602 5485
2506 1949 2362
2507 5028 8614
2508 4828 8158
2509 6094 6387
2510 1635 9386
2511 5339 7641
2512 4259 3188
2513 7835 5196
2514 9020 5654
2515 4274 6139
2516 6248 5373
2517 2478 7989
2518 8696 6327
2519 8282 3911
2520 7710 4603
2521 6872 7454
2522 1215 2726
2523 8014 5497
2524 5506 7185
2525 5784 5107
2526 7350 8141
2527 1607 2182
2528 6291 8603
2529 6083 8838
2530 3746 6178
2531 8471 5133
2532 8983 786 
2533 7637 4755
2534 2847 8198
2535 6031 5986
2536 4555 3870
2537 5089 6158
2538 7765 2472
2539 3961 7015
2540 4671 6988
2541 5836 3730
2542 3629 7707
2543 8394 5364
2544 4513 7175
2545 8162 4216
2546 776  5872
2547 855  1863
2548 2860 6979
2549 6841 5191
2550 5475 5695
2551 246  4274
2552 8453 7927
2553 2335 8543
2554 5764 5916
2555 3412 9241
2556 5060 2662
2557 9054 8437
2558 5439 5381
2559 6412 5701
2560 5756 8591
2561 4584 5906
2562 8445 5509
2563 8624 5543
2564 4390 360 
2565 4939 6624
2566 1246 4095
2567 5341 6562
2568 4608 7364
2569 7043 5543
2570 3227 6717
2571 6935 5380
2572 9379 7663
2573 7996 3775
2574 5487 8493
2575 5489 5440
2576 5875 3695
2577 1443 7977
2578 49   9901
2579 1163 5319
2580 6083 6370
2581 1016 8869
2582 6723 3637
2583 700  6484
2584 6300 7214
2585 8765 975 
2586 4628 7473
2587 7021 4993
2588 9725 49  
2589 1831 6625
2590 6077 6901
2591 2538 6937
2592 7365 5267
2593 8599 2016
2594 5037 6301
2595 5546 2170
2596 7429 4155
2597 9723 5468
2598 3722 9958
2599 3443 8152
2600 4931 927 
2601 8262 6041
2602 4129 8936
2603 4029 2926
2604 6783 6869
2605 5307 5641
2606 8915 4318
2607 6475 6731
2608 1962 3344
2609 3444 2593
2610 7980 5080
2611 6406 6146
2612 8576 9797
2613 863  9368
2614 9596 9049
2615 3241 3949
2616 7890 5101
2617 5368 2760
2618 5724 8081
2619 1581 8792
2620 4996 6803
2621 9710 5810
2622 7121 2188
2623 4524 6603
2624 190  6264
2625 7956 4688
2626 7852 5268
2627 3277 8898
2628 4052 7285
2629 192  7440
2630 2193 2070
2631 2860 5726
2632 7093 4848
2633 5711 7076
2634 3853 6889
2635 2965 9841
2636 5867 8141
2637 4537 7837
2638 454  3719
2639 6331 7988
2640 5627 6521
2641 4390 7234
2642 7223 4283
2643 6271 7392
2644 5308 9337
2645 8756 3504
2646 7008 4342
2647 5605 7882
2648 5230 9040
2649 5596 3499
2650 6265 7838
2651 2584 3866
2652 5994 8565
2653 6628 7235
2654 5290 5050
2655 7879 4860
2656 7240 4421
2657 8499 4510
2658 5433 4767
2659 1564 8829
2660 7808 4146
2661 7742 2987
2662 7213 5640
2663 5910 4646
2664 5309 3204
2665 2163 545 
2666 2026 3574
2667 8419 4836
2668 2647 1203
2669 4225 6552
2670 5336 4093
2671 4512 3239
2672 4141 8976
2673 8410 8521
2674 3688 6313
2675 8548 3742
2676 7580 2712
2677 2844 752 
2678 8084 5899
2679 9248 4582
2680 9074 233 
2681 3112 5596
2682 7267 3133
2683 8082 4213
2684 5800 6957
2685 5033 2209
2686 8533 7516
2687 5269 1282
2688 5269 7715
2689 6490 7333
2690 1712 7129
2691 9472 2025
2692 5680 7015
2693 6980 5021
2694 1486 2684
2695 300  1435
2696 1997 9539
2697 3144 9693
2698 601  9236
2699 8636 9248
2700 5485 7774
2701 1226 8477
2702 7714 5073
2703 992  950 
2704 679  878 
2705 7399 4323
2706 7536 3359
2707 4765 6570
2708 5817 7545
2709 4784 8001
2710 5222 7223
2711 6423 4865
2712 7537 5488
2713 4930 5070
2714 1850 6836
2715 726  5078
2716 5273 8147
2717 9007 7456
2718 4211 5124
2719 6435 7893
2720 7468 4721
2721 7548 7072
2722 4870 6742
2723 4335 8621
2724 8375 4592
2725 8921 6213
2726 7533 8804
2727 7793 5300
2728 746  7314
2729 2006 841 
2730 3288 5784
2731 2858 6775
2732 7667 8767
2733 6764 3905
2734 4825 6596
2735 2201 6969
2736 8055 4962
2737 1000 5620
2738 5573 7160
2739 345  6925
2740 5799 6098
2741 8794 4395
2742 1953 1609
2743 6897 9452
2744 6067 4301
2745 5576 2556
2746 9880 3541
2747 1284 5633
2748 7875 3481
2749 8401 4947
2750 5381 7697
2751 1668 8890
2752 4831 6039
2753 1440 4703
2754 1106 9151
2755 4975 7375
2756 6195 7154
2757 9286 2098
2758 7785 4865
2759 9074 9999
2760 8640 4307
2761 6001 8427
2762 8134 5237
2763 9651 4244
2764 8676 19  
2765 5008 5923
2766 9628 4035
2767 9939 5367
2768 5443 7685
2769 4919 6943
2770 5017 5631
2771 4720 8649
2772 8544 4423
2773 5623 9027
2774 4808 2803
2775 5463 7267
2776 7183 7463
2777 6097 5772
2778 2282 7514
2779 6845 6371
2780 6088 4432
2781 5283 6498
2782 5062 2763
2783 2125 2553
2784 1280 5778
2785 4503 5187
2786 7628 4388
2787 7669 4528
2788 5284 1944
2789 2579 6080
2790 4707 6352
2791 5242 6983
2792 6595 7590
2793 4482 4859
2794 5644 7881
2795 612  8363
2796 7520 4061
2797 7440 6087
2798 3081 8322
2799 8072 2475
2800 8757 4899
2801 4425 6871
2802 5653 6919
2803 6963 8084
2804 8586 6857
2805 9665 7280
2806 5889 6289
2807 4434 8432
2808 6606 7084
2809 6933 1125
2810 162  5273
2811 6807 6511
2812 1111 8012
2813 3625 8069
2814 5806 9833
2815 4912 6956
2816 5408 7329
2817 5366 5945
2818 7326 4864
2819 5647 7106
2820 5927 8513
2821 6584 1297
2822 9869 1391
2823 7446 4196
2824 7788 5566
2825 9187 4006
2826 9081 5346
2827 4674 5614
2828 9700 1441
2829 7111 2263
2830 7598 1611
2831 7414 4059
2832 5991 6636
2833 9728 7974
2834 3485 5463
2835 326  5656
2836 1762 9369
2837 7157 5874
2838 4104 7066
2839 483  5614
2840 5285 4008
2841 2938 6971
2842 8028 3614
2843 7102 5832
2844 7416 7521
2845 878  9578
2846 2040 2300
2847 392  7649
2848 9591 9873
2849 2280 7723
2850 5456 40  
2851 5368 1232
2852 5901 6115
2853 7922 5403
2854 1425 5462
2855 3634 6972
2856 971  2648
2857 9927 1227
2858 4960 6563
2859 9691 5442
2860 5563 7048
2861 7593 7834
2862 5574 4499
2863 7347 9875
2864 6003 5203
2865 8532 4468
2866 5716 6177
2867 2055 1586
2868 1316 3319
2869 3238 2221
2870 4374 9126
2871 6172 7181
2872 7670 5116
2873 2467 8154
2874 8462 6818
2875 5480 6256
2876 5509 9220
2877 5127 9071
2878 1094 3868
2879 8019 4762
2880 4780 6143
2881 1587 1945
2882 8744 5681
2883 6894 7988
2884 5179 4124
2885 1622 2293
2886 5701 7582
2887 9590 9111
2888 8138 4452
2889 8352 5167
2890 8065 2331
2891 8123 4921
2892 5534 7990
2893 9750 6564
2894 4008 6141
2895 8564 1041
2896 6879 5062
2897 6191 7511
2898 6405 7084
2899 3513 6662
2900 6001 7203
2901 8326 4333
2902 7473 5037
2903 3237 6391
2904 4994 7066
2905 8650 5320
2906 6604 8916
2907 6267 6907
2908 5169 442 
2909 2564 1749
2910 5057 8032
2911 6841 5333
2912 5480 7237
2913 5548 5071
2914 4699 7896
2915 1188 8805
2916 1310 5865
2917 3108 8758
2918 4186 7184
2919 6073 8086
2920 7967 3777
2921 4352 7503
2922 4197 2379
2923 929  5466
2924 5754 585 
2925 388  5744
2926 1074 3155
2927 9748 9819
2928 7335 5513
2929 3579 5396
2930 4049 4459
2931 4116 7678
2932 2623 2554
2933 7420 6056
2934 7046 8919
2935 5904 6450
2936 5216 8289
2937 5801 6651
2938 8485 9485
2939 4686 5094
2940 5094 803 
2941 9296 5806
2942 966  1786
2943 5278 9330
2944 6068 7995
2945 8273 4015
2946 4477 6055
2947 5621 7802
2948 8902 4135
2949 3129 8997
2950 1374 8427
2951 6951 5060
2952 5636 6074
2953 6987 8718
2954 2676 5349
2955 1873 1746
2956 6235 4663
2957 5371 8858
2958 5196 5396
2959 5022 7137
2960 4378 6584
2961 7462 3420
2962 7204 4644
2963 4917 6558
2964 3954 5119
2965 5391 9284
2966 5826 7579
2967 1341 5074
2968 4795 3918
2969 5686 7062
2970 8130 4296
2971 1210 6908
2972 7981 102 
2973 5642 564 
2974 5591 5935
2975 8610 5442
2976 4690 1023
2977 3268 7733
2978 2052 3849
2979 3852 3694
2980 8595 7815
2981 200  6059
2982 8748 7751
2983 5038 8152
2984 7446 5957
2985 4473 9453
2986 4923 7179
2987 6409 5649
2988 5560 6219
2989 9369 7197
2990 6560 7030
2991 2971 5783
2992 3003 9236
2993 229  4752
2994 3397 1617
2995 7387 3948
2996 1618 3025
2997 5874 7930
2998 4840 8338
2999 4909 6526
3000 5712 9394
3001 6913 5772
3002 2164 1205
3003 6088 8321
3004 7674 5184
3005 4338 7342
3006 4387 6836
3007 7585 4561
3008 5344 9645
3009 9377 7503
3010 8265 4720
3011 5912 6701
3012 2867 3136
3013 9056 4033
3014 6403 7874
3015 8067 4515
3016 4045 4036
3017 5569 7858
3018 7475 7471
3019 5292 7231
3020 7957 4496
3021 3568 8622
3022 6357 7501
3023 4312 2366
3024 5397 3417
3025 6134 4281
3026 7858 5011
3027 4830 5744
3028 4896 8383
3029 5404 7579
3030 9504 8445
3031 7922 5185
3032 5517 6753
3033 8359 4462
3034 8651 4263
3035 2229 6683
3036 4794 7529
3037 5335 5379
3038 4193 8043
3039 970  9731
3040 5355 7426
3041 6715 3859
3042 8058 1599
3043 5816 6283
3044 4981 4896
3045 4680 6252
3046 7802 5379
3047 5815 7592
3048 7561 4560
3049 4392 6129
3050 4750 7351
3051 5179 6915
3052 5514 8456
3053 5281 8195
3054 6196 5569
3055 4445 2421
3056 7962 5310
3057 905  5701
3058 4475 962 
3059 4877 3988
3060 6522 5071
3061 206  6858
3062 7856 4708
3063 5384 4928
3064 4577 6606
3065 3754 6361
3066 279  8885
3067 3184 672 
3068 6187 8660
3069 6026 8577
3070 7748 5365
3071 8645 4357
3072 4813 5520
3073 6437 2292
3074 5590 3656
3075 4421 7100
3076 4238 6498
3077 4765 6490
3078 5887 6975
3079 7930 5074
3080 9939 1180
3081 7563 4292
3082 2723 6806
3083 5444 4836
3084 5782 5828
3085 6340 7372
3086 5226 7073
3087 9468 5696
3088 5471 6580
3089 103  5565
3090 5937 2321
3091 8615 4512
3092 8180 7001
3093 6468 9427
3094 6106 8148
3095 7597 4462
3096 2733 2683
3097 3514 5904
3098 7367 6589
3099 207  9004
3100 4822 5561
3101 8194 5126
3102 5176 4551
3103 6327 5777
3104 6540 5083
3105 7984 4606
3106 4246 8593
3107 4428 4741
3108 4215 2595
3109 5346 7040
3110 1828 7673
3111 3842 7756
3112 5146 3891
3113 5584 7280
3114 7092 2499
3115 4756 9761
3116 2031 5348
3117 8808 8187
3118 2295 9846
3119 6978 4405
3120 6465 4974
3121 6271 6639
3122 2602 3225
3123 6001 8088
3124 7297 8295
3125 3175 3528
3126 2510 7345
3127 4235 9449
3128 9918 5526
3129 8754 8774
3130 5148 2356
3131 6566 3546
3132 2780 7263
3133 3197 3831
3134 9641 3428
3135 5650 4969
3136 9104 2638
3137 8613 7036
3138 8596 4622
3139 9064 4707
3140 7062 6509
3141 6440 6188
3142 5292 8952
3143 8291 3795
3144 7097 1923
3145 5108 5326
3146 7066 1266
3147 1400 7124
3148 9789 3803
3149 4808 7833
3150 8033 5240
3151 4403 3399
3152 4422 7966
3153 1525 1804
3154 4904 6788
3155 2538 9931
3156 4200 7104
3157 127  2102
3158 6517 5930
3159 3937 9020
3160 658  1150
3161 5835 7577
3162 5392 6759
3163 2903 4441
3164 7220 7948
3165 3968 6862
3166 5003 5567
3167 4983 3227
3168 2983 4470
3169 4437 7736
3170 364  6741
3171 1301 2030
3172 1037 2020
3173 5375 3630
3174 3544 9338
3175 5387 6610
3176 9940 5562
3177 3792 2308
3178 5733 4081
3179 3835 9587
3180 813  1382
3181 5444 4044
3182 736  4837
3183 220  946 
3184 4154 6516
3185 281  8703
3186 4003 6400
3187 5896 1366
3188 1234 7259
3189 5047 6170
3190 3003 8122
3191 4807 8716
3192 5148 5002
3193 6594 5076
3194 6716 6627
3195 787  214 
3196 2643 9933
3197 4098 7493
3198 5275 7433
3199 5969 9134
3200 2830 8971
3201 5712 7211
3202 7005 4775
3203 8222 271 
3204 9410 4572
3205 4172 5901
3206 5735 4472
3207 5531 5200
3208 5230 4815
3209 9291 9746
3210 9862 8497
3211 5263 7150
3212 1766 3058
3213 4717 6509
3214 5756 4431
3215 7900 5627
3216 5507 8752
3217 8375 5062
3218 5356 4892
3219 457  27  
3220 9040 9982
3221 7459 3105
3222 7865 2042
3223 6226 9680
3224 4655 7100
3225 9616 7160
3226 5267 6187
3227 1502 6721
3228 8194 3755
3229 7825 6228
3230 5750 6697
3231 5706 7092
3232 4716 5936
3233 5195 5973
3234 7349 6471
3235 8565 5362
3236 3937 6772
3237 5496 6448
3238 1842 2500
3239 9387 1654
3240 4982 5651
3241 7773 2797
3242 4782 5294
3243 4730 5863
3244 1850 8272
3245 4564 5071
3246 9693 794 
3247 7575 4967
3248 5310 7061
3249 4184 6581
3250 3928 4277
3251 1519 2490
3252 1269 6959
3253 7940 8713
3254 4896 751 
3255 3061 256 
3256 5823 6574
3257 4522 4742
3258 5814 3791
3259 2492 4948
3260 7600 4691
3261 6214 5316
3262 6769 7731
3263 5228 6894
3264 5019 7832
3265 7763 2535
3266 9406 8642
3267 5188 6257
3268 7357 3658
3269 5336 7152
3270 8990 144 
3271 5432 7394
3272 4932 5014
3273 4214 7147
3274 5097 7429
3275 587  754 
3276 6012 7878
3277 5127 7790
3278 4718 8394
3279 4603 1012
3280 4675 5344
3281 3711 7982
3282 5513 8936
3283 6304 7495
3284 2450 5734
3285 6154 5006
3286 200  2589
3287 6183 8252
3288 4931 5863
3289 6436 6495
3290 5849 2152
3291 8581 1666
3292 5451 7148
3293 7816 7631
3294 4192 1180
3295 5021 5753
3296 4739 5007
3297 285  6300
3298 2026 1521
3299 7396 741 
3300 4210 3108
3301 4434 6256
3302 7440 8896
3303 7967 4952
3304 8476 4923
3305 7703 9921
3306 7028 5541
3307 6880 8483
3308 6676 6960
3309 8127 7115
3310 7606 6423
3311 4801 6224
3312 7231 922 
3313 3681 8869
3314 9446 6516
3315 4035 5087
3316 172  8863
3317 3832 2990
3318 216  6304
3319 4852 4973
3320 7236 2415
3321 3393 1167
3322 3548 7246
3323 8925 6404
3324 4664 5973
3325 680  25  
3326 4999 6766
3327 7327 8189
3328 9191 9868
3329 9139 2394
3330 7355 4665
3331 6985 4323
3332 9663 5007
3333 7873 2888
3334 5703 6207
3335 6091 3701
3336 3023 5903
3337 5742 8170
3338 2134 5307
3339 4719 6686
3340 5222 5215
3341 6003 7663
3342 5659 4875
3343 5109 7595
3344 7960 331 
3345 6311 6792
3346 2159 3350
3347 5812 3703
3348 5157 7722
3349 5269 7444
3350 5743 8089
3351 5180 4765
3352 3728 9928
3353 6105 7507
3354 574  3549
3355 9014 3954
3356 8625 3756
3357 5392 6989
3358 9089 8436
3359 5574 8516
3360 9608 4726
3361 5169 8670
3362 3272 1149
3363 2655 5655
3364 5843 7552
3365 7046 9612
3366 5656 7488
3367 8302 6390
3368 5363 7207
3369 496  4470
3370 5606 8535
3371 9446 8721
3372 4135 5815
3373 377  637 
3374 2184 3147
3375 1142 3088
3376 4944 6049
3377 9148 4955
3378 3581 5113
3379 7378 4501
3380 8112 4275
3381 7398 5605
3382 4205 7404
3383 4327 7674
3384 731  2936
3385 9894 3996
3386 4728 7258
3387 9062 4309
3388 6213 1678
3389 5770 7093
3390 4255 1773
3391 5770 7393
3392 5539 6461
3393 9435 34  
3394 650  2917
3395 3961 6512
3396 7155 7645
3397 9932 2821
3398 7215 3804
3399 927  9974
3400 8344 3480
3401 8130 4141
3402 6129 8407
3403 3893 8785
3404 5136 3091
3405 7698 1089
3406 1725 2107
3407 9370 9850
3408 4807 8216
3409 7420 4969
3410 88   290 
3411 1907 1357
3412 4844 5136
3413 7102 5401
3414 5995 7730
3415 8433 3889
3416 4330 8767
3417 6719 6955
3418 7924 5591
3419 1645 7074
3420 6728 5197
3421 8476 2103
3422 5127 5613
3423 4160 9362
3424 4442 6888
3425 3481 4384
3426 4394 2874
3427 8946 576 
3428 2423 10  
3429 5415 8506
3430 2930 2798
3431 8338 7546
3432 5794 8951
3433 986  7368
3434 4889 7117
3435 5530 7915
3436 4085 5072
3437 4682 8375
3438 4910 6056
3439 354  4477
3440 973  8366
3441 5988 6386
3442 107  4258
3443 5374 2377
3444 8251 1612
3445 5877 8439
3446 8234 4469
3447 7661 6727
3448 9878 1384
3449 4355 6139
3450 6572 4611
3451 9086 2497
3452 7942 4777
3453 2832 4068
3454 4728 9105
3455 5391 3489
3456 4881 4333
3457 7748 4607
3458 5037 7209
3459 5086 6087
3460 6169 5334
3461 8729 8828
3462 1339 2048
3463 9851 2452
3464 346  3771
3465 1135 2242
3466 1423 404 
3467 7624 2337
3468 8399 4753
3469 6818 7719
3470 4921 5553
3471 2206 521 
3472 6332 1399
3473 2648 7568
3474 9824 8519
3475 6464 7967
3476 9483 89  
3477 1294 2769
3478 3915 5297
3479 9421 9154
3480 6350 2367
3481 5163 5986
3482 1138 5851
3483 9487 6465
3484 4250 5096
3485 6739 889 
3486 4462 5812
3487 5048 8030
3488 7524 8071
3489 474  4846
3490 1284 4681
3491 1386 1348
3492 3263 5810
3493 9172 3160
3494 7111 690 
3495 3140 9136
3496 2565 6105
3497 6197 8521
3498 7664 2581
3499 8765 6032
3500 3074 6045
3501 6119 6106
3502 7476 4632
3503 4992 7566
3504 8740 1326
3505 5552 8700
3506 5944 9506
3507 2893 4830
3508 3318 4161
3509 9239 4141
3510 6348 9161
3511 8106 6373
3512 9175 6442
3513 8559 6282
3514 7533 8008
3515 923  5730
3516 2734 8567
3517 7466 8540
3518 4480 8949
3519 4669 8413
3520 7312 1865
3521 6939 5625
3522 6310 7043
3523 963  6898
3524 7243 4916
3525 5518 4416
3526 3281 8795
3527 5942 9087
3528 6716 2296
3529 568  6697
3530 4999 6484
3531 5533 5308
3532 8801 6545
3533 6102 7122
3534 316  8891
3535 8367 5737
3536 5250 6904
3537 5670 7813
3538 7320 5417
3539 5005 5665
3540 6166 8858
3541 5395 5954
3542 5622 2002
3543 9025 2855
3544 7821 5843
3545 46   7970
3546 4156 7120
3547 7565 5050
3548 9742 1773
3549 7666 4380
3550 9280 6782
3551 8426 5887
3552 5346 6279
3553 6436 7750
3554 4425 8321
3555 2664 7820
3556 8968 6487
3557 6857 6595
3558 4622 6567
3559 8988 8571
3560 5616 7375
3561 7870 4772
3562 3893 7692
3563 7556 4628
3564 3576 6165
3565 6115 5442
3566 6637 7481
3567 4444 9239
3568 4934 7903
3569 7994 6108
3570 3998 6781
3571 8140 1886
3572 6226 7689
3573 5412 8632
3574 4908 4407
3575 8468 5228
3576 6784 1812
3577 5568 7321
3578 5353 6805
3579 7659 4604
3580 4196 7363
3581 5477 9691
3582 6618 3853
3583 7967 5152
3584 7495 5879
3585 8399 9434
3586 7790 8485
3587 3653 7019
3588 5636 2308
3589 5146 7877
3590 5279 4280
3591 5231 4947
3592 8441 3784
3593 4790 5023
3594 7575 8714
3595 5769 8239
3596 8054 6235
3597 9124 6276
3598 4591 7656
3599 6197 8944
3600 7484 9792
3601 7846 4588
3602 7091 4417
3603 5073 2094
3604 1792 9378
3605 9027 699 
3606 8922 3955
3607 7522 4135
3608 8085 1909
3609 6611 5255
3610 7123 4743
3611 7945 5835
3612 8482 7811
3613 8013 7815
3614 4921 5858
3615 5148 4199
3616 5659 9308
3617 91   3139
3618 6771 1022
3619 6744 4991
3620 6902 3640
3621 8771 4247
3622 8809 4584
3623 5801 9367
3624 3301 6806
3625 6421 3436
3626 7712 4008
3627 6398 3686
3628 6568 5124
3629 6611 4946
3630 8978 4342
3631 166  4252
3632 942  2290
3633 6504 7317
3634 4090 7772
3635 5662 7978
3636 9395 7203
3637 4786 7796
3638 5501 6747
3639 6388 5527
3640 4837 6538
3641 4911 6364
3642 7273 2800
3643 3365 4975
3644 5167 8082
3645 5027 1063
3646 6165 1774
3647 4017 6533
3648 4616 8323
3649 3557 7620
3650 5469 5927
3651 4286 2274
3652 4058 8278
3653 8557 4444
3654 884  3089
3655 1714 8513
3656 1147 9558
3657 8685 5516
3658 5617 7430
3659 7219 3933
3660 5667 7029
3661 5371 5514
3662 4630 6578
3663 7772 3802
3664 7668 5327
3665 8060 4434
3666 3904 7867
3667 9599 4125
3668 5839 1944
3669 4321 5315
3670 7630 7667
3671 8639 1604
3672 3725 5796
3673 703  8259
3674 4507 5404
3675 9148 6457
3676 6305 4628
3677 8338 2712
3678 4226 7221
3679 6743 5398
3680 7721 4598
3681 4382 9591
3682 5118 5905
3683 9448 5522
3684 6991 4132
3685 1538 5912
3686 2462 826 
3687 9162 6372
3688 3997 8361
3689 647  3853
3690 4763 4432
3691 4444 27  
3692 8547 3056
3693 4742 8110
3694 5860 5981
3695 7648 571 
3696 6696 9901
3697 6902 9453
3698 5212 5803
3699 4920 7687
3700 9843 689 
3701 8235 4540
3702 4950 9683
3703 5297 7746
3704 2972 8654
3705 4508 1467
3706 4905 6948
3707 3841 7837
3708 4500 2351
3709 8386 4004
3710 5054 5326
3711 817  9918
3712 1443 1737
3713 5789 4814
3714 1529 9237
3715 9695 2110
3716 3738 6867
3717 6022 8229
3718 3224 6172
3719 5371 7224
3720 6374 3907
3721 7207 5395
3722 6084 56  
3723 5160 5510
3724 7686 688 
3725 4878 6672
3726 8210 5858
3727 4001 6702
3728 5587 7877
3729 4930 5711
3730 6682 3897
3731 5606 6514
3732 8934 2400
3733 5179 5677
3734 6848 5712
3735 7473 5219
3736 7966 6398
3737 4548 7700
3738 3154 3956
3739 4560 5575
3740 2452 6298
3741 6810 6944
3742 6446 6020
3743 8709 3527
3744 6795 5308
3745 9355 6934
3746 9618 2737
3747 9049 3776
3748 5742 6927
3749 5133 8360
3750 6017 1930
3751 6071 8742
3752 7094 159 
3753 6379 3596
3754 6528 2759
3755 9111 873 
3756 5602 7594
3757 2528 289 
3758 4351 7463
3759 2303 1690
3760 59   2224
3761 9065 4560
3762 8980 2099
3763 2707 564 
3764 5294 9276
3765 7735 6917
3766 8488 9153
3767 9166 8516
3768 4131 7102
3769 6141 823 
3770 7827 7139
3771 4314 4721
3772 3992 6071
3773 6707 5450
3774 8449 3083
3775 8550 9064
3776 4278 5199
3777 4509 8672
3778 4192 5260
3779 6148 7856
3780 8681 4746
3781 3843 2909
3782 400  9490
3783 5049 5596
3784 5550 6568
3785 5109 7096
3786 2451 3689
3787 6741 8988
3788 5964 5849
3789 5188 7888
3790 4517 7091
3791 3348 8060
3792 4079 7016
3793 7578 8049
3794 7977 4338
3795 1731 4314
3796 3625 6355
3797 4368 2477
3798 6399 2182
3799 6049 5433
3800 479  9234
3801 3360 6968
3802 4357 2040
3803 5668 6672
3804 3350 1188
3805 6528 4230
3806 5030 5570
3807 7108 9667
3808 3433 4647
3809 3655 4468
3810 6642 8727
3811 7871 6088
3812 5036 9121
3813 8323 5228
3814 7311 5920
3815 4833 6961
3816 4623 1994
3817 5956 5211
3818 1913 5914
3819 2704 9398
3820 5783 6275
3821 5268 7356
3822 5252 5849
3823 7116 3447
3824 8485 3432
3825 5520 7913
3826 2880 6931
3827 4605 6454
3828 4312 7489
3829 7280 6675
3830 5486 6071
3831 4855 6803
3832 7413 7446
3833 4216 5105
3834 9681 342 
3835 8072 3319
3836 3053 8046
3837 5269 4874
3838 8225 6503
3839 5530 7111
3840 5790 5677
3841 4966 4580
3842 6785 7481
3843 7655 9050
3844 6623 3442
3845 7472 5218
3846 4746 5689
3847 7659 3201
3848 1482 2107
3849 3711 5240
3850 7320 4641
3851 3312 4301
3852 4884 8483
3853 3965 4553
3854 6201 5176
3855 6014 5908
3856 7304 4213
3857 7833 4965
3858 5653 6690
3859 8054 5009
3860 1859 572 
3861 9050 4523
3862 4997 5941
3863 6475 6676
3864 6315 204 
3865 5366 2531
3866 5092 7228
3867 393  6197
3868 6826 7603
3869 3620 7406
3870 1817 9184
3871 4460 4254
3872 5830 6637
3873 4740 5112
3874 5183 6144
3875 6292 8078
3876 4559 5627
3877 8903 9743
3878 6721 7387
3879 8155 4684
3880 8121 4812
3881 6256 7061
3882 5791 8322
3883 6921 2290
3884 3509 7342
3885 7977 3981
3886 6197 7776
3887 7427 4301
3888 9397 6623
3889 541  8995
3890 5969 7415
3891 5266 4488
3892 5706 8674
3893 6692 3433
3894 5721 8825
3895 5973 1155
3896 5427 1059
3897 6176 5335
3898 5193 7578
3899 1850 1582
3900 7510 6360
3901 5624 6407
3902 4869 8006
3903 4999 4295
3904 807  5362
3905 5392 5852
3906 6114 7777
3907 1463 1326
3908 1280 1727
3909 8051 877 
3910 6544 2638
3911 5356 3497
3912 8387 5262
3913 4056 6513
3914 9928 2058
3915 4308 8395
3916 5409 5948
3917 2645 7915
3918 1821 6362
3919 7821 5270
3920 7639 5216
3921 7260 4987
3922 2373 8354
3923 1720 9237
3924 8079 4080
3925 5188 7463
3926 5346 6140
3927 5568 7322
3928 7324 6320
3929 4039 4740
3930 3601 8471
3931 8464 2936
3932 5524 7835
3933 7101 1691
3934 9845 9056
3935 5312 5390
3936 8077 4548
3937 4716 9765
3938 4351 7244
3939 8184 7683
3940 1978 8906
3941 4900 3828
3942 9887 6984
3943 5399 7470
3944 6335 5837
3945 5912 6454
3946 4272 6412
3947 1322 8392
3948 4832 5141
3949 5223 5519
3950 4635 4270
3951 4424 907 
3952 9684 7199
3953 7228 4342
3954 7366 8478
3955 9449 4522
3956 5373 6251
3957 9984 4880
3958 6495 5656
3959 5504 7639
3960 1409 9589
3961 5706 6661
3962 5811 4433
3963 9112 1146
3964 7942 4948
3965 2774 3371
3966 8773 7389
3967 9259 5995
3968 3976 343 
3969 4161 6359
3970 5078 4790
3971 6705 3674
3972 1211 195 
3973 7498 873 
3974 7525 4515
3975 5146 6574
3976 2697 2145
3977 9013 2401
3978 8433 4203
3979 5793 6898
3980 4633 5978
3981 7857 9082
3982 6092 1418
3983 3107 1095
3984 4904 8432
3985 587  2355
3986 5607 5879
3987 4499 8350
3988 2641 8934
3989 6802 578 
3990 8327 5569
3991 8492 7340
3992 4499 5841
3993 4547 6302
3994 9263 4683
3995 5929 4208
3996 2056 7336
3997 5476 7778
3998 2133 1170
3999 3252 6477
4000 5694 7291
4001 7501 4130
4002 2230 344 
4003 9692 9712
4004 9984 6572
4005 7828 4842
4006 4058 6533
4007 6425 8055
4008 6780 5573
4009 1566 2906
4010 605  7094
4011 9880 7459
4012 3967 6873
4013 6865 1018
4014 4693 6712
4015 5156 8233
4016 5024 3631
4017 4938 6986
4018 2192 7081
4019 1312 115 
4020 2729 3715
4021 934  6850
4022 3622 3351
4023 5167 6984
4024 3089 3543
4025 3607 7020
4026 1473 160 
4027 6880 1608
4028 4603 8828
4029 4772 5351
4030 7489 4698
4031 5958 6748
4032 9148 8393
4033 3504 2402
4034 6956 7801
4035 6202 8418
4036 3010 7638
4037 9746 8983
4038 4862 7669
4039 5555 7357
4040 5123 5293
4041 6694 1623
4042 6475 219 
4043 6559 6135
4044 5821 7779
4045 2050 9445
4046 2885 2615
4047 5460 8433
4048 9299 6507
4049 162  292 
4050 4185 1726
4051 9251 6147
4052 4153 6719
4053 8151 8413
4054 8902 8853
4055 723  5614
4056 6911 6577
4057 1490 1749
4058 4679 6504
4059 3822 7485
4060 4985 5948
4061 6365 5830
4062 4846 5803
4063 6816 9088
4064 5650 7628
4065 8096 5145
4066 8293 600 
4067 6271 7404
4068 4748 7039
4069 5373 9187
4070 9071 3537
4071 2532 2032
4072 8310 7913
4073 1218 1517
4074 4856 7637
4075 8453 4066
4076 5260 6901
4077 7517 3644
4078 6483 4617
4079 974  7109
4080 209  8999
4081 8096 1881
4082 1802 4688
4083 5675 5859
4084 6155 6711
4085 8495 4807
4086 7286 7713
4087 3418 6310
4088 5834 6716
4089 324  9963
4090 5295 7542
4091 8409 6047
4092 4694 4974
4093 5378 4205
4094 6521 7905
4095 270  6435
4096 6829 9536
4097 6724 8764
4098 1283 8598
4099 5667 7565
4100 5624 5839
4101 7131 2477
4102 6477 7014
4103 9121 2792
4104 6355 1155
4105 6175 8084
4106 7221 7404
4107 370  8906
4108 7185 4210
4109 1013 9966
4110 4571 7130
4111 6438 6803
4112 5065 7361
4113 1851 3189
4114 8697 3647
4115 4471 6902
4116 5776 7554
4117 5776 5302
4118 7558 9913
4119 6925 5724
4120 5806 6447
4121 1800 6512
4122 9546 9698
4123 6880 5180
4124 4140 5147
4125 5800 4522
4126 5467 5767
4127 6168 4408
4128 653  5586
4129 5305 1160
4130 6811 9244
4131 6539 7556
4132 7125 6779
4133 6865 5533
4134 6116 6340
4135 6922 5804
4136 3194 4962
4137 2207 886 
4138 4491 7578
4139 5671 6911
4140 7655 9546
4141 6742 7932
4142 8042 4416
4143 5143 5997
4144 9582 4872
4145 5527 1299
4146 974  7967
4147 200  8171
4148 5239 5725
4149 3893 7504
4150 7823 8516
4151 7604 2437
4152 6587 3394
4153 4051 7595
4154 5130 5122
4155 6621 6054
4156 7399 4771
4157 2304 4149
4158 5821 9117
4159 5382 6717
4160 8793 8248
4161 5429 6147
4162 1245 6561
4163 3321 9600
4164 6542 9646
4165 5124 7746
4166 2131 2492
4167 7452 6960
4168 5994 4711
4169 6335 4398
4170 3305 2819
4171 9278 2409
4172 7107 4865
4173 1535 8374
4174 7308 3903
4175 5015 7055
4176 2678 8733
4177 1686 7165
4178 8173 6291
4179 4309 7481
4180 6112 5236
4181 9656 7888
4182 1144 325 
4183 4630 6318
4184 5142 8452
4185 6006 9799
4186 9137 825 
4187 2307 5523
4188 5495 8890
4189 4051 8020
4190 4581 3165
4191 5033 5113
4192 7390 5248
4193 5430 7803
4194 2656 654 
4195 4692 6973
4196 3565 6620
4197 5736 6855
4198 1403 7135
4199 5162 7008
4200 7317 4487
4201 8075 5098
4202 7746 3571
4203 586  5508
4204 7335 3098
4205 7306 6929
4206 3153 2976
4207 8431 4864
4208 3617 6001
4209 5924 6832
4210 4509 2711
4211 5309 5111
4212 4370 5980
4213 8229 8987
4214 5422 5538
4215 5367 5965
4216 8266 4137
4217 5485 7307
4218 8307 4799
4219 4023 5438
4220 6375 7392
4221 5002 7524
4222 9698 2002
4223 4738 5439
4224 8735 4260
4225 6353 7741
4226 8725 4803
4227 8249 5370
4228 8162 4653
4229 3657 7710
4230 2090 544 
4231 3854 1204
4232 7526 6097
4233 8667 4532
4234 7798 4728
4235 5892 7411
4236 8128 4628
4237 2114 4981
4238 1243 4173
4239 5461 6179
4240 7555 6547
4241 8036 4404
4242 2374 8794
4243 6821 6429
4244 865  2036
4245 7219 5525
4246 4431 8844
4247 5585 960 
4248 9038 4423
4249 3930 8067
4250 5998 7896
4251 4745 6865
4252 4254 8478
4253 5546 1257
4254 3357 4720
4255 8936 2873
4256 5552 8363
4257 6349 4173
4258 9902 3123
4259 5974 4241
4260 9310 5367
4261 5484 4632
4262 6797 3014
4263 111  4491
4264 488  1011
4265 6644 3626
4266 7166 5067
4267 7029 5232
4268 2856 7451
4269 9212 5081
4270 8809 6182
4271 7251 6332
4272 3002 7488
4273 8757 6615
4274 1858 8564
4275 8193 2724
4276 3118 2630
4277 8151 4313
4278 3040 6070
4279 3036 2494
4280 3093 9856
4281 5932 8955
4282 7987 3633
4283 2931 7416
4284 5559 9408
4285 5433 1953
4286 9823 5474
4287 6172 6030
4288 4927 4802
4289 903  6749
4290 489  2918
4291 4650 8342
4292 8343 8694
4293 824  3824
4294 518  7264
4295 7924 4158
4296 4049 9240
4297 2754 8632
4298 4801 5280
4299 6096 8824
4300 4503 7077
4301 5320 6999
4302 1563 7512
4303 7683 5387
4304 5468 1667
4305 2578 9191
4306 8338 4349
4307 4868 89  
4308 7943 4266
4309 860  7200
4310 1484 1686
4311 6794 3053
4312 57   9433
4313 5660 7732
4314 3440 8692
4315 5121 4605
4316 42   8612
4317 6889 5122
4318 2509 7717
4319 6929 9923
4320 6665 8037
4321 6753 8001
4322 7600 39  
4323 5743 7404
4324 725  2521
4325 6129 5256
4326 9346 9427
4327 9472 2005
4328 5926 9405
4329 183  4494
4330 3715 8248
4331 5890 6096
4332 8088 5278
4333 9975 6085
4334 2178 7486
4335 6862 1403
4336 4901 7956
4337 4908 4868
4338 5451 7995
4339 5139 5537
4340 5277 1210
4341 2803 308 
4342 4780 7330
4343 1195 4036
4344 7161 5694
4345 6016 6477
4346 6104 8378
4347 9583 4201
4348 6702 6563
4349 4884 7720
4350 7817 7507
4351 6504 5317
4352 5231 7749
4353 6792 2959
4354 6766 7325
4355 2287 5945
4356 6561 3514
4357 8781 3588
4358 1255 5203
4359 5915 2410
4360 8244 7494
4361 1711 9234
4362 8755 4525
4363 9885 665 
4364 9721 9763
4365 8701 3973
4366 3868 2098
4367 3943 7354
4368 2989 6115
4369 8344 4359
4370 4745 8149
4371 6737 5982
4372 4699 7275
4373 8190 1028
4374 5333 4719
4375 4021 6778
4376 9101 3416
4377 8480 6918
4378 6067 5858
4379 5595 8554
4380 5805 7261
4381 5592 4577
4382 7857 5819
4383 3346 5494
4384 4785 9702
4385 8348 4817
4386 6172 4272
4387 2866 15  
4388 5085 6323
4389 339  1329
4390 2668 2483
4391 4972 4498
4392 8577 9085
4393 8030 4909
4394 7697 239 
4395 5776 6686
4396 5208 5232
4397 7861 9534
4398 8164 8090
4399 9657 2944
4400 3960 621 
4401 8204 894 
4402 1211 1067
4403 5691 7006
4404 5065 3858
4405 9430 5863
4406 7874 816 
4407 759  7120
4408 6360 848 
4409 4984 6938
4410 7001 3328
4411 8942 3712
4412 3459 3014
4413 4544 7614
4414 8774 8817
4415 5615 6613
4416 2332 2433
4417 7369 5074
4418 1094 8346
4419 4555 1287
4420 8582 4296
4421 8726 3099
4422 8455 6150
4423 612  1700
4424 7700 5089
4425 4903 9351
4426 4382 7627
4427 5287 6180
4428 6123 9882
4429 7727 5981
4430 5522 5436
4431 2392 5591
4432 3668 8101
4433 6517 8113
4434 8443 4873
4435 8007 5000
4436 7482 5432
4437 5895 1237
4438 8194 4870
4439 5135 7252
4440 6088 8246
4441 8254 5655
4442 5185 4071
4443 5331 8704
4444 1765 7415
4445 2726 1530
4446 4464 8049
4447 7821 6145
4448 7991 4133
4449 7157 6874
4450 5341 7401
4451 4249 6592
4452 6417 9785
4453 2241 7434
4454 1260 9693
4455 5602 9166
4456 4619 6643
4457 5097 1613
4458 5547 8062
4459 4849 6951
4460 8735 8655
4461 3994 7857
4462 7792 7252
4463 8699 5448
4464 7083 8018
4465 2894 4520
4466 5161 6298
4467 5812 7416
4468 5516 5828
4469 8061 4045
4470 9323 3672
4471 7733 4946
4472 4406 4127
4473 8759 4836
4474 9456 5675
4475 9570 4774
4476 7535 4567
4477 6132 6435
4478 3371 9544
4479 3981 6212
4480 3427 7157
4481 1190 7043
4482 4424 8626
4483 5767 362 
4484 6055 7039
4485 3854 7497
4486 6439 3234
4487 4168 7681
4488 3260 2826
4489 78   8153
4490 6095 8867
4491 9002 4460
4492 5875 5208
4493 4180 7101
4494 5196 5541
4495 8368 4949
4496 6757 7648
4497 1849 7215
4498 826  2512
4499 2294 6559
4500 8958 3341
4501 9593 4810
4502 6698 4485
4503 7760 8639
4504 7471 6549
4505 6013 6639
4506 4650 7804
4507 7976 4484
4508 6053 7781
4509 7540 5270
4510 3501 7843
4511 4545 9808
4512 5134 8722
4513 6624 4205
4514 5748 8928
4515 2746 5157
4516 7679 4813
4517 7479 5313
4518 4942 8195
4519 9693 8868
4520 6632 7739
4521 6408 7321
4522 8224 5269
4523 6221 7234
4524 8135 3366
4525 4687 8693
4526 2702 2855
4527 4345 7251
4528 5443 5788
4529 3888 6629
4530 5399 7505
4531 5858 8757
4532 7662 5234
4533 1466 7018
4534 8315 4319
4535 9609 9176
4536 6322 3124
4537 4920 7572
4538 1851 8276
4539 5373 6162
4540 3760 7998
4541 4705 7857
4542 3704 5540
4543 8687 1500
4544 5699 6357
4545 1321 5195
4546 7813 4634
4547 5735 8703
4548 6741 80  
4549 9813 4645
4550 2464 5725
4551 8769 5869
4552 3553 1070
4553 5543 5401
4554 6659 9395
4555 6039 8122
4556 2064 1689
4557 5230 7938
4558 8128 5890
4559 7815 5474
4560 292  1117
4561 5590 8308
4562 6020 9449
4563 6889 5839
4564 8542 1998
4565 6795 2367
4566 5027 7060
4567 2000 609 
4568 8135 9828
4569 4883 5155
4570 851  7658
4571 6329 8086
4572 5350 8201
4573 5511 4422
4574 6664 8010
4575 8306 4755
4576 1929 1669
4577 9221 1276
4578 4982 6881
4579 4101 6396
4580 68   4318
4581 2395 3969
4582 7917 2903
4583 4025 6289
4584 4501 8860
4585 7010 6634
4586 6237 6584
4587 5411 6769
4588 9234 5556
4589 6991 4826
4590 4473 413 
4591 6122 7144
4592 1208 5053
4593 75   3748
4594 283  7054
4595 2730 4497
4596 3643 8430
4597 1406 8724
4598 5969 6528
4599 4859 6797
4600 988  3456
4601 1041 752 
4602 7873 5464
4603 3891 7279
4604 5834 8602
4605 5834 5768
4606 8292 4421
4607 2995 4442
4608 2891 8041
4609 5036 7431
4610 6377 3004
4611 5447 5104
4612 5141 6853
4613 4245 7507
4614 5302 8382
4615 7059 63  
4616 7868 4830
4617 9445 3406
4618 1078 1500
4619 5853 6363
4620 2827 9003
4621 1549 9678
4622 6499 5399
4623 7563 7112
4624 4729 1799
4625 6691 8114
4626 6137 2208
4627 5259 6740
4628 6225 7035
4629 7340 6632
4630 3484 4837
4631 5840 8044
4632 9235 434 
4633 7075 6988
4634 5037 8248
4635 7345 4413
4636 8297 4790
4637 9490 5777
4638 2383 1866
4639 1824 7057
4640 4552 8286
4641 3962 2366
4642 6195 5401
4643 4771 4924
4644 3884 6154
4645 5549 6164
4646 2687 477 
4647 1226 519 
4648 5166 6631
4649 614  1588
4650 7405 5031
4651 8348 6388
4652 5037 5470
4653 5978 396 
4654 9406 1030
4655 8203 5520
4656 9990 7283
4657 7527 5268
4658 2247 5761
4659 8813 890 
4660 6238 3082
4661 5784 9547
4662 1116 1740
4663 5315 2638
4664 5415 5123
4665 7667 4287
4666 6788 3910
4667 4798 6496
4668 6165 7100
4669 978  1093
4670 5105 9205
4671 1687 9749
4672 5855 4909
4673 2764 8138
4674 6405 7746
4675 5826 7098
4676 6332 8356
4677 7690 4228
4678 7280 8254
4679 6361 1459
4680 9327 7423
4681 4424 7156
4682 6188 7141
4683 4858 3461
4684 5338 5470
4685 6362 6795
4686 4812 7327
4687 7745 5568
4688 1545 371 
4689 5963 6329
4690 6722 7728
4691 9079 6718
4692 7333 5905
4693 5057 6798
4694 6489 6380
4695 441  5836
4696 6693 4058
4697 5353 3640
4698 6127 8112
4699 8640 4023
4700 5075 7006
4701 5888 7265
4702 8855 3615
4703 7892 9464
4704 5144 8176
4705 6374 2912
4706 7394 4887
4707 5270 3209
4708 5424 7157
4709 1890 7769
4710 1503 2270
4711 1112 8768
4712 8135 3010
4713 5725 5894
4714 647  6883
4715 7541 4949
4716 4470 8465
4717 6950 320 
4718 7826 5092
4719 8742 5113
4720 4875 5633
4721 5452 6225
4722 8664 1634
4723 6370 3490
4724 4279 2956
4725 428  5495
4726 6149 5751
4727 8190 4998
4728 5748 8301
4729 1301 4079
4730 6660 6984
4731 6032 9502
4732 6213 6481
4733 443  299 
4734 6026 535 
4735 84   559 
4736 3216 5080
4737 4820 7630
4738 5332 9595
4739 8918 3061
4740 9747 4661
4741 7648 3483
4742 1265 7816
4743 3442 1752
4744 126  3433
4745 3851 1750
4746 3845 7323
4747 9251 9169
4748 8638 3163
4749 580  4774
4750 5717 2019
4751 1232 5084
4752 8252 4916
4753 4148 2884
4754 8170 5014
4755 9554 2698
4756 7638 1627
4757 4734 5908
4758 7988 5054
4759 4721 6690
4760 5954 6582
4761 6364 7585
4762 5764 6902
4763 5361 7607
4764 7288 5665
4765 8418 4878
4766 7452 4467
4767 8383 4971
4768 2856 4803
4769 6941 6130
4770 5140 6723
4771 5478 3430
4772 8480 3961
4773 9253 530 
4774 604  520 
4775 1267 376 
4776 7763 3756
4777 3085 5300
4778 4488 7517
4779 7788 5776
4780 4157 7022
4781 7717 4764
4782 4714 3197
4783 6724 4991
4784 6463 5909
4785 4756 6415
4786 8261 2723
4787 4761 4707
4788 5651 5823
4789 8338 6316
4790 3839 4807
4791 7671 4541
4792 3803 8774
4793 8208 4961
4794 4488 4627
4795 912  2240
4796 4972 5291
4797 7267 4445
4798 783  9038
4799 4666 8865
4800 2074 7126
4801 7625 7459
4802 4456 3998
4803 4964 5687
4804 2645 7014
4805 8097 3809
4806 4986 7442
4807 4623 6065
4808 7324 4639
4809 6718 7790
4810 7630 5446
4811 555  6903
4812 7174 12  
4813 5105 6256
4814 3156 4497
4815 1695 4134
4816 7378 4726
4817 4945 7232
4818 5197 1722
4819 4190 3376
4820 5853 6915
4821 4819 6260
4822 1661 7954
4823 944  2596
4824 8932 3793
4825 5109 6851
4826 3646 7819
4827 6168 6574
4828 7338 7226
4829 4384 6793
4830 3950 5364
4831 4683 5999
4832 4617 8243
4833 7429 5309
4834 4833 6841
4835 9906 1721
4836 5733 395 
4837 2632 790 
4838 2871 3933
4839 4659 6574
4840 5791 7003
4841 6010 8068
4842 7348 4819
4843 9618 5001
4844 5402 7047
4845 9961 4268
4846 6071 7652
4847 5389 8108
4848 8677 7440
4849 5638 7168
4850 7660 3347
4851 7644 6024
4852 2474 4591
4853 857  8224
4854 2322 9533
4855 8180 6406
4856 6867 5376
4857 3935 5150
4858 8838 8431
4859 7224 4927
4860 6099 3580
4861 3542 4791
4862 6298 8475
4863 5893 2130
4864 5312 6214
4865 7827 1610
4866 3760 6668
4867 3646 7457
4868 4188 6175
4869 1843 6416
4870 7315 5863
4871 4336 8958
4872 5483 6441
4873 3759 6987
4874 9293 6130
4875 4136 7389
4876 2499 327 
4877 5889 7457
4878 5070 8159
4879 5339 8603
4880 5602 7593
4881 848  996 
4882 4413 5589
4883 4987 7216
4884 255  9112
4885 3943 1724
4886 1503 3043
4887 8442 4877
4888 2663 9949
4889 6062 587 
4890 5969 6469
4891 7005 4636
4892 2763 8881
4893 1632 2511
4894 4810 4010
4895 1930 9383
4896 5292 9701
4897 8140 6974
4898 7911 4881
4899 8717 5370
4900 5633 8654
4901 7972 4535
4902 3103 1569
4903 7212 6682
4904 5274 6110
4905 5145 5582
4906 5805 6718
4907 7319 7815
4908 6902 288 
4909 3468 8104
4910 8741 6987
4911 1934 9362
4912 5862 6656
4913 5693 7883
4914 7952 4472
4915 8970 1086
4916 6073 8145
4917 6982 9185
4918 8041 4520
4919 843  1955
4920 8257 7055
4921 6352 6454
4922 1381 9236
4923 7949 8017
4924 5333 8556
4925 2592 4028
4926 6631 8948
4927 6934 2004
4928 8441 7755
4929 5604 5353
4930 8922 2753
4931 216  2492
4932 7461 8942
4933 9550 2991
4934 4628 7091
4935 6544 8516
4936 6132 6400
4937 5152 8304
4938 6650 1287
4939 4581 7940
4940 6524 4383
4941 243  3376
4942 8759 6365
4943 5651 5657
4944 5169 3225
4945 7150 4270
4946 3796 7793
4947 5459 8043
4948 4096 6652
4949 6859 6596
4950 5222 4070
4951 6673 5959
4952 8479 1107
4953 6585 7662
4954 8766 9328
4955 7551 3842
4956 7424 4580
4957 5523 8128
4958 3841 6656
4959 5287 5527
4960 4215 6946
4961 8204 8920
4962 6356 829 
4963 4255 2019
4964 5752 7936
4965 7678 3858
4966 8709 5341
4967 5507 8923
4968 5603 8216
4969 3220 5078
4970 3721 6767
4971 6229 6902
4972 3629 5178
4973 4182 5031
4974 3734 4811
4975 5437 5860
4976 8048 3664
4977 3954 5572
4978 7131 9203
4979 280  2095
4980 5106 7783
4981 3192 4835
4982 5457 6947
4983 361  9125
4984 5247 7427
4985 8857 5961
4986 7085 7083
4987 2980 4476
4988 8020 1305
4989 4595 4659
4990 2577 6291
4991 4468 5122
4992 8373 8740
4993 5793 8179
4994 6341 3872
4995 4930 4079
4996 4036 5407
4997 4842 5334
4998 8050 5387
4999 6182 5619
5000 3753 8022
5001 3841 9038
5002 7722 4665
5003 5440 8876
5004 5337 6733
5005 6556 512 
5006 6815 7385
5007 3728 5894
5008 6771 6546
5009 8467 4137
5010 5609 6753
5011 2102 7866
5012 4038 3647
5013 7269 6144
5014 4376 7680
5015 8521 4833
5016 8877 5124
5017 2819 9793
5018 7971 9121
5019 4284 7944
5020 3813 6382
5021 2573 2353
5022 8575 8571
5023 5567 5369
5024 4638 5234
5025 7014 8879
5026 9545 4006
5027 8234 2132
5028 698  1553
5029 3574 3036
5030 6884 8416
5031 4842 5087
5032 4514 9616
5033 8455 2176
5034 5515 8005
5035 4847 7681
5036 5912 7886
5037 7899 4733
5038 5294 5771
5039 9827 3660
5040 5715 8732
5041 5714 4965
5042 6007 7523
5043 1091 8242
5044 8974 5402
5045 1163 4409
5046 5826 7507
5047 4304 8508
5048 5850 7752
5049 7178 3637
5050 4427 6098
5051 7463 5416
5052 5602 4425
5053 5530 7578
5054 7306 7622
5055 1082 6102
5056 209  1314
5057 6920 5468
5058 878  1204
5059 8865 6708
5060 8519 5184
5061 4351 4197
5062 6285 8442
5063 3134 5149
5064 5181 6720
5065 9718 8157
5066 5066 2688
5067 7799 4859
5068 899  7591
5069 3224 6293
5070 6264 8020
5071 1972 7609
5072 9032 5709
5073 1859 6454
5074 7414 7638
5075 729  3218
5076 5476 7258
5077 5750 1352
5078 2238 9541
5079 4512 7230
5080 6408 6296
5081 561  5929
5082 8872 3052
5083 7588 3119
5084 1851 6923
5085 9412 2453
5086 7886 4406
5087 7827 8348
5088 6629 7824
5089 3846 6086
5090 3820 6203
5091 3036 7351
5092 5505 8196
5093 802  3638
5094 4995 8412
5095 7844 438 
5096 3692 6269
5097 7558 4492
5098 4919 5069
5099 1923 7844
5100 2797 4330
5101 7636 4625
5102 6895 3834
5103 8616 3087
5104 9087 4230
5105 7091 4649
5106 7522 4959
5107 5057 6957
5108 4860 7370
5109 6685 9695
5110 2641 4300
5111 2977 8636
5112 5166 7100
5113 7814 4223
5114 9093 6126
5115 4811 7407
5116 266  6973
5117 6400 7485
5118 4937 7302
5119 1982 5741
5120 5434 6194
5121 5442 9223
5122 6013 9692
5123 5372 6943
5124 6616 7080
5125 9127 9530
5126 1600 6035
5127 367  9205
5128 5994 5907
5129 9656 5402
5130 5973 2307
5131 1895 6361
5132 4527 6785
5133 2305 455 
5134 8165 4475
5135 4029 8058
5136 7538 2698
5137 6926 5073
5138 5136 6207
5139 5339 6872
5140 5070 7181
5141 4909 5361
5142 7082 283 
5143 1016 3168
5144 7843 4664
5145 7935 4486
5146 4873 2645
5147 8363 6466
5148 3218 5902
5149 4506 7190
5150 5625 6368
5151 4248 5602
5152 2135 9307
5153 7479 4710
5154 9144 5237
5155 3431 6932
5156 8411 9089
5157 6891 1259
5158 8523 9023
5159 5734 7873
5160 651  9277
5161 4809 5469
5162 4515 5917
5163 2399 9849
5164 4950 6142
5165 5307 6999
5166 1957 287 
5167 5848 8349
5168 6083 5557
5169 5451 8608
5170 4398 6868
5171 857  7561
5172 3953 9746
5173 6938 7333
5174 4078 149 
5175 3965 2200
5176 5669 5431
5177 5928 7055
5178 3227 8320
5179 5530 6584
5180 7937 6678
5181 5165 7651
5182 1859 9133
5183 3018 18  
5184 6544 5462
5185 6068 7879
5186 71   8229
5187 4800 7280
5188 7415 5697
5189 5766 7525
5190 4782 5771
5191 8543 4200
5192 5246 9045
5193 9351 859 
5194 7522 3624
5195 8161 5107
5196 4482 7227
5197 6003 9195
5198 8028 4786
5199 5669 4127
5200 7832 4328
5201 5250 6291
5202 7867 6165
5203 3033 6413
5204 2237 3489
5205 2264 9270
5206 9442 7396
5207 3308 3299
5208 8911 5967
5209 5693 4038
5210 4968 8441
5211 546  6537
5212 7201 6391
5213 4363 6719
5214 4773 6924
5215 8571 8755
5216 7823 4359
5217 5417 6975
5218 625  3629
5219 3737 8617
5220 5049 1404
5221 8191 2730
5222 5173 7315
5223 3572 6403
5224 5558 9004
5225 2393 9127
5226 1998 8751
5227 5722 8977
5228 2171 9402
5229 8977 8327
5230 8512 5266
5231 3189 4547
5232 6094 763 
5233 5545 8125
5234 7356 6196
5235 7317 5418
5236 8343 3672
5237 6190 7255
5238 2667 2758
5239 2442 5538
5240 6101 6349
5241 2209 7573
5242 4586 1640
5243 6255 9494
5244 5202 6787
5245 3030 184 
5246 5253 7017
5247 4347 6613
5248 9920 5934
5249 4114 3483
5250 4008 4148
5251 5413 9039
5252 6887 2507
5253 5660 8314
5254 1226 8777
5255 7615 4774
5256 5120 4935
5257 4968 6270
5258 6129 3415
5259 8149 6091
5260 4123 4246
5261 8089 4477
5262 1197 7607
5263 9020 4977
5264 6516 7266
5265 6206 8162
5266 3405 8047
5267 4693 4137
5268 6618 4369
5269 7785 4703
5270 7501 5438
5271 7248 5204
5272 66   5221
5273 3831 6694
5274 9422 9495
5275 5656 8436
5276 3410 5674
5277 7660 4738
5278 6905 1899
5279 2542 7385
5280 3150 6552
5281 4533 6088
5282 3787 8564
5283 6427 3582
5284 2391 972 
5285 6848 5633
5286 4563 8329
5287 5435 8463
5288 4990 6242
5289 5459 3300
5290 9249 5905
5291 9666 4311
5292 9181 9112
5293 2012 8371
5294 7251 5439
5295 8431 4003
5296 2813 1281
5297 4638 5425
5298 4596 6300
5299 7002 9194
5300 3446 8358
5301 4652 6794
5302 4804 9172
5303 7622 6234
5304 3671 7307
5305 1794 1452
5306 8394 4193
5307 6655 6393
5308 4894 4421
5309 5393 6478
5310 4170 7556
5311 7793 3495
5312 7626 4714
5313 5709 4793
5314 3227 1516
5315 7240 9898
5316 7079 5592
5317 9739 6646
5318 923  3462
5319 2250 6894
5320 5091 7145
5321 4276 8744
5322 1877 1990
5323 1751 6566
5324 6312 1104
5325 7637 8883
5326 8231 5236
5327 8037 4809
5328 6565 5034
5329 7601 4476
5330 6342 8541
5331 666  9302
5332 7301 4436
5333 3479 7439
5334 5455 5970
5335 3934 4208
5336 4652 7261
5337 3502 596 
5338 6013 4496
5339 5129 9946
5340 7744 4694
5341 8153 7769
5342 7022 9197
5343 1257 1756
5344 4572 6920
5345 9364 2954
5346 5560 6392
5347 5343 6295
5348 5451 5845
5349 5535 7988
5350 8163 4893
5351 9115 5283
5352 1180 8261
5353 7736 4958
5354 9814 9561
5355 6984 3779
5356 8575 4932
5357 5782 5882
5358 4288 7245
5359 5845 4521
5360 1508 6965
5361 8279 1528
5362 5090 1434
5363 6474 3743
5364 6917 4414
5365 9903 1005
5366 2403 214 
5367 643  4045
5368 5573 7192
5369 7450 5833
5370 6212 6619
5371 2698 1531
5372 9242 2599
5373 5805 7508
5374 5748 7025
5375 8445 3738
5376 4862 5068
5377 2480 3344
5378 6934 3757
5379 1022 4936
5380 6270 5611
5381 3987 6831
5382 4736 5541
5383 5802 4596
5384 9513 9144
5385 6149 4599
5386 4212 4044
5387 2588 8080
5388 7503 5054
5389 8215 3912
5390 5367 5614
5391 9743 6185
5392 5396 5999
5393 5615 5477
5394 457  8506
5395 1124 317 
5396 6121 4987
5397 9234 6476
5398 141  4057
5399 5186 5199
5400 4866 3229
5401 7177 3585
5402 3239 4257
5403 5842 7598
5404 6220 8217
5405 6125 5542
5406 6325 4831
5407 6875 6532
5408 4573 6840
5409 5516 1386
5410 4269 9428
5411 1098 7734
5412 6282 6019
5413 5529 7132
5414 8028 5016
5415 4295 4347
5416 6292 3455
5417 4979 5466
5418 8585 4707
5419 3360 9457
5420 6004 8925
5421 6497 1939
5422 9886 7167
5423 5500 5435
5424 2685 5614
5425 5553 8283
5426 5552 7213
5427 5314 4944
5428 2200 3859
5429 8978 5389
5430 5416 8055
5431 5236 9496
5432 5289 6799
5433 8251 4306
5434 7695 4646
5435 4672 5412
5436 9056 2756
5437 4449 9281
5438 7465 5850
5439 1075 3570
5440 7863 6181
5441 8145 28  
5442 5761 6418
5443 5585 5625
5444 8471 5242
5445 4615 7388
5446 7038 1518
5447 331  6272
5448 9842 1607
5449 6578 5383
5450 9578 1102
5451 7372 9916
5452 4882 3051
5453 7771 1633
5454 4922 9915
5455 4689 9600
5456 7240 9312
5457 5498 7459
5458 7099 4691
5459 4649 5948
5460 4181 9160
5461 147  3938
5462 2836 2886
5463 8178 5576
5464 4261 5315
5465 2472 441 
5466 5386 7106
5467 4791 5662
5468 4191 7174
5469 8074 1995
5470 4364 1504
5471 4230 5025
5472 9744 7848
5473 8385 814 
5474 5112 5392
5475 979  2926
5476 6692 6256
5477 5451 4157
5478 5504 2768
5479 3678 1587
5480 4234 6083
5481 4185 6935
5482 6525 4390
5483 5375 7046
5484 7380 4921
5485 9561 6616
5486 8975 4544
5487 4755 27  
5488 2992 8161
5489 5568 3910
5490 8157 8323
5491 5149 7663
5492 5388 5737
5493 2172 773 
5494 8893 4381
5495 6517 411 
5496 5835 8284
5497 6566 6047
5498 4067 7806
5499 4088 4675
5500 6202 7332
5501 7684 5014
5502 5427 6167
5503 9095 5078
5504 5300 7951
5505 7924 6351
5506 5260 7254
5507 4543 3334
5508 9169 8103
5509 6087 6616
5510 5198 5946
5511 7705 2990
5512 6442 5150
5513 3555 7673
5514 9199 343 
5515 7194 8535
5516 4893 7170
5517 5165 5917
5518 4928 6436
5519 5529 6953
5520 5591 5924
5521 7910 5202
5522 5906 7884
5523 5549 9368
5524 3487 5458
5525 5922 7967
5526 5239 3738
5527 7763 5536
5528 4529 5389
5529 7398 4442
5530 7836 8043
5531 7646 4163
5532 4165 5362
5533 6379 3201
5534 7241 4222
5535 7613 8429
5536 3694 6723
5537 8683 4856
5538 2300 2182
5539 5966 9360
5540 2610 6318
5541 6670 2488
5542 4372 9088
5543 2377 8471
5544 6991 3403
5545 8572 8084
5546 5980 8558
5547 5750 9340
5548 6480 6899
5549 8528 8077
5550 883  7839
5551 7331 9826
5552 2811 4820
5553 1668 7155
5554 4658 8418
5555 5772 4781
5556 8276 5688
5557 2953 200 
5558 4925 7919
5559 4617 7174
5560 9549 2592
5561 3136 4801
5562 7902 3948
5563 5562 6907
5564 8128 5945
5565 7531 5117
5566 3961 5447
5567 6607 5181
5568 4886 6418
5569 5457 9804
5570 4551 5474
5571 3642 1333
5572 4776 6232
5573 7031 4254
5574 578  700 
5575 3258 1082
5576 2420 6805
5577 5612 6424
5578 4795 4209
5579 5149 7490
5580 4459 9141
5581 4027 6213
5582 5502 2340
5583 5178 6701
5584 4961 5622
5585 7020 2183
5586 80   5334
5587 9554 7581
5588 7270 5499
5589 5915 5704
5590 8876 9   
5591 4390 840 
5592 7862 2006
5593 7792 9705
5594 8661 7649
5595 8492 6790
5596 4653 3719
5597 5946 7780
5598 4091 5278
5599 6066 7102
5600 5601 5748
5601 6161 3557
5602 3951 7799
5603 6092 7309
5604 1156 1970
5605 3772 2743
5606 4619 5768
5607 7289 3929
5608 3862 4869
5609 6866 5882
5610 5349 7059
5611 3050 5336
5612 7842 4781
5613 5013 7775
5614 5983 6937
5615 4241 282 
5616 5558 4224
5617 8627 1660
5618 5547 8534
5619 7849 7229
5620 8513 2405
5621 5214 3813
5622 7887 809 
5623 4741 4278
5624 6243 7463
5625 4539 5602
5626 4710 5169
5627 7571 4776
5628 1736 3521
5629 7148 4900
5630 4828 5358
5631 5422 9966
5632 9363 2588
5633 2571 5183
5634 8112 4990
5635 4770 2123
5636 5069 7408
5637 8445 5889
5638 6707 2144
5639 6904 3243
5640 3928 6731
5641 4576 642 
5642 4936 5594
5643 3548 6609
5644 6904 8699
5645 7604 2433
5646 6585 6516
5647 5048 7148
5648 3718 229 
5649 4318 7477
5650 2830 5150
5651 6050 1522
5652 401  4191
5653 1133 2792
5654 628  1640
5655 5862 5723
5656 3204 9642
5657 6447 5133
5658 2838 9976
5659 9208 3793
5660 5842 3631
5661 7874 5391
5662 3780 747 
5663 5642 5186
5664 4878 9041
5665 7564 5300
5666 4946 5091
5667 4544 5006
5668 8895 5710
5669 5504 8014
5670 3834 6728
5671 8935 6896
5672 5591 2074
5673 6638 8195
5674 6701 3648
5675 2859 7463
5676 9798 380 
5677 3625 8821
5678 4985 3077
5679 6314 6576
5680 2553 9433
5681 3519 6700
5682 8127 4534
5683 4656 5710
5684 3673 2280
5685 8830 4356
5686 7914 9224
5687 9839 3501
5688 7556 4956
5689 4999 8570
5690 9127 1825
5691 6352 6089
5692 9482 2352
5693 995  9364
5694 5795 5716
5695 2777 864 
5696 5622 6849
5697 6519 6840
5698 4167 5751
5699 4778 6696
5700 6271 6184
5701 4230 5990
5702 4575 8175
5703 1343 3409
5704 6918 7124
5705 5794 4163
5706 6184 6523
5707 9740 1941
5708 1347 1059
5709 7021 5977
5710 8267 4771
5711 5839 4907
5712 8324 5434
5713 8730 3825
5714 4356 6691
5715 9984 7235
5716 3358 5368
5717 6310 1710
5718 5850 1144
5719 7859 3753
5720 5108 6403
5721 6766 979 
5722 7897 6342
5723 46   9421
5724 9786 613 
5725 5742 5857
5726 4949 7754
5727 8097 2441
5728 4029 4453
5729 4649 6873
5730 7792 2726
5731 677  3071
5732 7620 4073
5733 6063 6293
5734 6602 6913
5735 8992 3593
5736 609  2294
5737 6458 9178
5738 6480 8830
5739 8574 2832
5740 4575 5506
5741 166  1270
5742 4424 7985
5743 8100 3924
5744 6127 4625
5745 6227 9992
5746 3923 8639
5747 8952 2823
5748 447  7347
5749 8264 5430
5750 5842 7128
5751 7464 4713
5752 5059 7359
5753 5614 7131
5754 8802 9538
5755 7087 6148
5756 4351 8636
5757 5135 6231
5758 2083 5162
5759 8838 4507
5760 293  6172
5761 4353 6059
5762 4673 7774
5763 6401 7532
5764 4711 6907
5765 6744 8240
5766 6765 7365
5767 3900 7311
5768 4884 6844
5769 7266 9059
5770 7960 2871
5771 7707 5087
5772 6650 6739
5773 3340 9858
5774 2575 4347
5775 3221 7861
5776 8333 4558
5777 5964 5093
5778 9359 5181
5779 8408 7308
5780 4363 9964
5781 7044 1504
5782 2247 3892
5783 9088 7919
5784 1453 3428
5785 8788 5993
5786 5869 6749
5787 4230 7798
5788 1832 5339
5789 1974 4106
5790 1419 9200
5791 2992 7051
5792 7470 1648
5793 7637 3509
5794 6140 6792
5795 9206 9350
5796 7474 3314
5797 6265 9301
5798 195  1476
5799 8740 7307
5800 7785 5193
5801 2292 7499
5802 5871 7786
5803 9069 294 
5804 4845 5904
5805 5087 6774
5806 7770 4868
5807 66   6191
5808 7022 5276
5809 6236 1097
5810 4073 5898
5811 7872 8070
5812 5799 5855
5813 2649 2472
5814 8944 4679
5815 4402 970 
5816 2800 9937
5817 7344 8358
5818 3778 2077
5819 4883 1897
5820 5451 6378
5821 7408 4966
5822 4472 7378
5823 6174 7566
5824 6418 7744
5825 5421 6553
5826 5153 7003
5827 1477 7512
5828 6690 5793
5829 5617 8035
5830 9548 3569
5831 5059 5193
5832 6301 1049
5833 9362 2142
5834 8374 288 
5835 5190 1605
5836 7716 4490
5837 3012 1000
5838 7098 6784
5839 8868 9583
5840 9723 3065
5841 5398 6546
5842 6030 5487
5843 5048 6786
5844 8264 5458
5845 5286 9014
5846 966  3628
5847 6812 8217
5848 9007 4205
5849 6571 8036
5850 2434 8646
5851 6754 9394
5852 160  5998
5853 6736 8675
5854 5317 5912
5855 2742 3123
5856 5079 5173
5857 8148 5139
5858 5547 4654
5859 1131 6008
5860 4430 5652
5861 5351 5064
5862 1750 6910
5863 5267 7336
5864 8024 4732
5865 5280 6670
5866 3727 8350
5867 2128 904 
5868 6899 8357
5869 5391 7975
5870 2133 9683
5871 5798 5874
5872 5890 4329
5873 5430 7894
5874 4071 9604
5875 4093 5784
5876 6512 7759
5877 309  1780
5878 3032 5992
5879 7759 5236
5880 7335 4280
5881 9204 4587
5882 4793 2764
5883 7396 4538
5884 9408 1264
5885 2161 6135
5886 3773 731 
5887 8281 208 
5888 7917 4836
5889 8979 5464
5890 2313 6992
5891 3646 5662
5892 5094 9819
5893 5260 7786
5894 141  5781
5895 118  8436
5896 257  6133
5897 8713 6861
5898 4637 5650
5899 7421 339 
5900 1620 6168
5901 4417 8654
5902 4592 3503
5903 3769 6767
5904 4029 3512
5905 5666 8664
5906 5357 6900
5907 5020 7641
5908 4160 2331
5909 502  9691
5910 4592 1250
5911 1931 6013
5912 4560 8545
5913 7365 4949
5914 8954 173 
5915 8793 8374
5916 5792 8695
5917 5543 7116
5918 3906 5311
5919 3539 6703
5920 3634 5653
5921 3049 1523
5922 5581 8768
5923 7923 5266
5924 2720 5152
5925 6157 7821
5926 8748 2253
5927 618  5712
5928 1873 5332
5929 8488 9428
5930 8176 3606
5931 8003 562 
5932 8579 8009
5933 3449 4283
5934 6288 8111
5935 9011 621 
5936 4119 7341
5937 6487 8690
5938 5715 8636
5939 5806 8293
5940 4458 7082
5941 8161 4887
5942 5703 1350
5943 602  7583
5944 5740 9596
5945 6561 8075
5946 4703 6724
5947 8129 7931
5948 5766 7658
5949 8238 2380
5950 7523 3324
5951 3435 3931
5952 5267 7221
5953 6491 6976
5954 9137 2982
5955 7385 9246
5956 7668 2914
5957 2872 942 
5958 4554 8629
5959 6484 5799
5960 8746 6529
5961 7774 862 
5962 2443 5548
5963 7538 5869
5964 564  8566
5965 773  7973
5966 5019 6549
5967 1487 5832
5968 3301 4341
5969 946  223 
5970 8308 4356
5971 3368 2085
5972 4560 7469
5973 4686 7729
5974 2917 8543
5975 7699 4476
5976 5048 6483
5977 4075 7587
5978 5688 6682
5979 7359 4982
5980 1344 8880
5981 5615 2973
5982 7485 6949
5983 9920 7382
5984 9688 3155
5985 5707 139 
5986 2678 9773
5987 1111 6001
5988 5165 7886
5989 5361 6388
5990 5234 6266
5991 5804 5938
5992 1893 7828
5993 6076 8838
5994 5924 5703
5995 8311 4374
5996 1123 1953
5997 3856 4661
5998 7781 5377
5999 5723 8546
6000 1330 5441
6001 4987 8406
6002 7115 42  
6003 8334 3237
6004 7900 4161
6005 6329 8929
6006 8037 640 
6007 9801 8018
6008 9411 6170
6009 8034 4974
6010 6660 4957
6011 9082 4373
6012 2402 124 
6013 2548 8387
6014 2523 7396
6015 2831 5927
6016 4182 8131
6017 7741 4550
6018 3071 8550
6019 2177 1987
6020 7955 851 
6021 5664 5812
6022 6209 6554
6023 2074 8832
6024 4807 440 
6025 7441 3938
6026 6165 9220
6027 6625 230 
6028 5983 2334
6029 7800 3477
6030 8480 6978
6031 4243 7989
6032 7826 5920
6033 9196 3713
6034 5931 5288
6035 8382 3241
6036 7190 9775
6037 5872 893 
6038 7909 4503
6039 7865 796 
6040 9334 1278
6041 5974 6750
6042 2609 2023
6043 8337 4170
6044 2019 5111
6045 6354 3685
6046 6004 7156
6047 7073 5037
6048 7957 6333
6049 7443 6715
6050 5800 6868
6051 5477 9422
6052 6320 8956
6053 5951 4694
6054 5100 2910
6055 4378 2609
6056 5189 5563
6057 4586 8285
6058 3699 8756
6059 6886 2959
6060 4292 4202
6061 4213 8820
6062 5528 3763
6063 5745 6472
6064 4716 2830
6065 2851 5859
6066 1839 2997
6067 3517 1175
6068 5139 5068
6069 5337 6638
6070 5277 9432
6071 6589 5712
6072 6772 8624
6073 9908 7469
6074 5756 2751
6075 1175 4414
6076 8231 5345
6077 5000 8225
6078 4266 6796
6079 9226 5108
6080 4049 8314
6081 4663 6124
6082 5169 6926
6083 8238 4715
6084 7485 9617
6085 9514 3332
6086 8653 6169
6087 4555 8892
6088 9109 6685
6089 4011 7127
6090 9440 5092
6091 5537 6612
6092 5246 6214
6093 5867 7889
6094 4999 6575
6095 4132 5587
6096 5596 7100
6097 8833 2628
6098 6508 8019
6099 5662 6096
6100 4614 7222
6101 5085 7620
6102 216  4160
6103 7606 4693
6104 8772 1063
6105 5839 5293
6106 5636 5318
6107 3766 5464
6108 4969 6932
6109 5086 7094
6110 7567 4705
6111 6488 5198
6112 9695 5368
6113 5718 8637
6114 3929 6274
6115 4020 3899
6116 5929 1613
6117 6858 2792
6118 6392 5555
6119 7737 5355
6120 7656 3777
6121 5059 6836
6122 5427 7652
6123 4518 7380
6124 4793 7099
6125 5097 5426
6126 9423 8844
6127 5285 8816
6128 3481 4850
6129 4325 5996
6130 4936 6635
6131 5168 9910
6132 5378 3382
6133 4789 3813
6134 5049 9687
6135 8216 8763
6136 8459 5923
6137 1877 4287
6138 7180 3697
6139 5409 6569
6140 9944 3467
6141 2559 6261
6142 1680 2925
6143 7366 4656
6144 4538 5938
6145 8273 7539
6146 6219 6180
6147 4088 9319
6148 2537 3695
6149 5855 4905
6150 7600 4036
6151 7292 5756
6152 5397 6182
6153 7527 2408
6154 201  633 
6155 2535 5897
6156 1721 9842
6157 4463 8469
6158 4698 5577
6159 4871 5919
6160 6386 949 
6161 4527 6894
6162 5191 6627
6163 4579 7362
6164 9804 5268
6165 4772 9938
6166 5934 6962
6167 4923 781 
6168 1097 9194
6169 9741 5778
6170 5135 5261
6171 8049 9289
6172 2103 721 
6173 5135 7513
6174 5091 6804
6175 8589 4923
6176 5751 8366
6177 7049 2384
6178 7579 9924
6179 4558 6510
6180 6267 6405
6181 5429 6673
6182 8160 1730
6183 5765 2883
6184 4985 5215
6185 5041 6849
6186 8060 5103
6187 1615 4019
6188 5833 8090
6189 8589 4718
6190 338  8558
6191 2433 5585
6192 4852 9149
6193 7054 8108
6194 1671 3222
6195 6252 7919
6196 8313 4043
6197 5027 7026
6198 5344 6026
6199 6415 5444
6200 6798 372 
6201 2029 6015
6202 7694 5335
6203 2088 5540
6204 4280 6910
6205 6814 3610
6206 1143 4266
6207 9227 4264
6208 6180 5746
6209 5984 5422
6210 7137 5604
6211 7073 1316
6212 6304 9260
6213 3042 2368
6214 9467 8548
6215 3701 9605
6216 8722 3080
6217 5995 6779
6218 7879 3945
6219 3113 3789
6220 3616 6452
6221 7748 2440
6222 952  3973
6223 4937 6813
6224 7453 3180
6225 8307 5315
6226 4831 5876
6227 7383 2340
6228 7791 3739
6229 5923 5849
6230 9653 3866
6231 6318 7748
6232 7315 3512
6233 1594 817 
6234 6875 6626
6235 7764 5252
6236 7751 5033
6237 7541 6998
6238 1746 7291
6239 1695 5402
6240 4672 7052
6241 9924 3053
6242 1878 3972
6243 4815 8102
6244 8473 4423
6245 5573 1855
6246 4699 846 
6247 9727 3473
6248 5961 6314
6249 4703 7870
6250 4845 6198
6251 6309 5604
6252 8994 2012
6253 5074 5073
6254 6779 5293
6255 3415 7584
6256 6810 3815
6257 7672 4192
6258 7527 4322
6259 9377 7637
6260 9914 4223
6261 4278 7044
6262 4350 6059
6263 5527 7765
6264 1832 1799
6265 9733 3798
6266 5053 1295
6267 3264 1309
6268 5251 5764
6269 8092 3832
6270 3244 4411
6271 5007 7363
6272 5923 6462
6273 4970 7186
6274 805  9397
6275 6479 7303
6276 1518 4040
6277 5102 2795
6278 4755 3763
6279 5239 5386
6280 5929 3170
6281 5678 7256
6282 1596 769 
6283 3030 3942
6284 5056 7294
6285 2334 5817
6286 6138 4908
6287 5076 4204
6288 6037 7381
6289 7158 6257
6290 4130 6489
6291 2221 7475
6292 5809 3802
6293 8594 4274
6294 5267 4650
6295 956  2694
6296 6623 6343
6297 6466 4105
6298 4822 5206
6299 8604 3671
6300 9595 6009
6301 5820 4393
6302 4642 1376
6303 8966 3929
6304 5336 6979
6305 1228 5342
6306 838  5654
6307 8929 2282
6308 9767 6204
6309 2863 6542
6310 5608 9316
6311 4973 6672
6312 6417 5109
6313 5480 8648
6314 5417 5119
6315 5624 7937
6316 3868 3160
6317 609  7993
6318 4234 7908
6319 2510 2596
6320 7562 5107
6321 255  8052
6322 691  2807
6323 6671 7854
6324 6209 7348
6325 4961 7413
6326 2504 3756
6327 6561 7440
6328 9933 1701
6329 1196 9752
6330 5856 5828
6331 4802 7249
6332 6573 7329
6333 6133 7611
6334 1675 2655
6335 9058 4727
6336 3888 182 
6337 7142 889 
6338 5146 8780
6339 3344 5707
6340 5112 6899
6341 4952 6984
6342 2811 2296
6343 8081 7498
6344 5991 8059
6345 5064 8009
6346 5949 3172
6347 2889 4870
6348 8567 4152
6349 3177 3975
6350 1576 7086
6351 5061 7012
6352 8135 2101
6353 7922 4822
6354 2859 5259
6355 4004 6085
6356 1204 3682
6357 4405 4951
6358 374  4389
6359 5295 4134
6360 4938 9466
6361 6926 5390
6362 9676 648 
6363 4891 7293
6364 1778 4470
6365 1039 6200
6366 9745 425 
6367 4985 4479
6368 5778 5678
6369 6421 2882
6370 181  7133
6371 4060 4547
6372 5462 7827
6373 9134 4684
6374 6862 7618
6375 6595 6116
6376 5659 6294
6377 9351 922 
6378 5394 9029
6379 1945 4691
6380 56   3493
6381 7030 7505
6382 4540 7822
6383 34   6168
6384 8130 9902
6385 5546 7657
6386 7060 6764
6387 3944 6282
6388 7354 4516
6389 4849 7315
6390 5855 7593
6391 4090 7158
6392 5532 8149
6393 3604 1244
6394 6717 9348
6395 8111 4411
6396 3933 3793
6397 5420 4526
6398 4225 4729
6399 1916 9904
6400 4865 6572
6401 4779 3523
6402 124  9064
6403 9348 8396
6404 3153 7351
6405 7562 5015
6406 7718 4218
6407 8521 4199
6408 8127 6667
6409 4720 5264
6410 6051 7670
6411 4256 5423
6412 3771 5583
6413 5130 8166
6414 1028 2553
6415 7110 7757
6416 9481 12  
6417 8316 4440
6418 5021 4221
6419 2999 3434
6420 8123 5109
6421 6262 8219
6422 4287 8051
6423 6957 6074
6424 6917 5139
6425 6888 6045
6426 6701 8510
6427 5529 7326
6428 2837 3969
6429 7810 3944
6430 6506 4294
6431 7201 8763
6432 6882 3082
6433 283  2320
6434 5551 8427
6435 6291 1462
6436 8249 2568
6437 4828 6854
6438 2726 8420
6439 7762 7168
6440 4600 9885
6441 4906 7153
6442 4804 5147
6443 8211 5861
6444 2976 5349
6445 5246 7856
6446 4811 2821
6447 4894 6900
6448 4531 4753
6449 6283 7164
6450 9330 6788
6451 6723 4341
6452 3369 4874
6453 6887 5438
6454 6748 6439
6455 292  3370
6456 4987 7078
6457 4683 3965
6458 4411 7341
6459 7730 3962
6460 1781 9965
6461 8838 4366
6462 8146 4106
6463 8594 1475
6464 4318 7360
6465 7403 5186
6466 1089 4143
6467 6694 7774
6468 5721 1518
6469 5200 5140
6470 4200 486 
6471 7482 5657
6472 4306 6806
6473 250  9300
6474 8038 4454
6475 1654 5712
6476 4640 5861
6477 4538 7149
6478 7760 3686
6479 2137 3250
6480 5269 4919
6481 4546 5963
6482 4462 5720
6483 4817 9438
6484 6466 9258
6485 7381 4350
6486 151  2531
6487 6483 6447
6488 8071 4025
6489 4888 6103
6490 5784 6924
6491 7738 8184
6492 3801 8272
6493 7418 4324
6494 2205 9710
6495 8108 8072
6496 8652 5442
6497 5286 5444
6498 8285 6503
6499 8362 3268
6500 4180 8405
6501 5739 7679
6502 7701 4035
6503 77   6950
6504 5268 8042
6505 6504 6834
6506 8843 5071
6507 5632 7486
6508 4938 5590
6509 9361 5006
6510 9357 6453
6511 8955 7523
6512 5542 8420
6513 5223 8635
6514 4571 7216
6515 6582 1444
6516 5649 5685
6517 6924 5092
6518 4960 8713
6519 1199 5299
6520 5535 2429
6521 9716 4012
6522 1287 1359
6523 6602 177 
6524 7971 6134
6525 796  2614
6526 8619 3830
6527 4907 7604
6528 8270 8206
6529 3916 1782
6530 7576 4724
6531 6050 7933
6532 7044 7279
6533 6601 7401
6534 9382 9364
6535 7817 4843
6536 6843 2440
6537 4998 5679
6538 961  8885
6539 7784 5325
6540 7570 7769
6541 398  1991
6542 3944 6549
6543 9803 1812
6544 4078 6671
6545 5403 9160
6546 4557 8357
6547 2853 6648
6548 4566 3310
6549 6563 2463
6550 5395 6925
6551 5269 6956
6552 9315 7288
6553 7346 4694
6554 8991 6884
6555 9171 7943
6556 4289 5136
6557 5179 6163
6558 6233 8719
6559 4267 5976
6560 5632 6596
6561 6390 4321
6562 7103 3755
6563 8240 2053
6564 5098 8678
6565 6854 7414
6566 913  6619
6567 9054 9080
6568 7721 4461
6569 4933 7050
6570 7217 2378
6571 5966 4388
6572 5099 4086
6573 6167 4937
6574 5979 4779
6575 5874 7615
6576 4534 5539
6577 9350 132 
6578 9507 4194
6579 8072 3939
6580 3873 4112
6581 5816 7844
6582 8515 6601
6583 4161 1926
6584 9139 6103
6585 5399 7078
6586 5484 5417
6587 8578 7844
6588 4164 7550
6589 8630 9368
6590 7672 4338
6591 5233 3975
6592 6131 9255
6593 7863 5846
6594 1107 5774
6595 2799 989 
6596 8017 7651
6597 5087 9860
6598 4982 8524
6599 1681 3936
6600 859  7545
6601 4832 4691
6602 4139 6045
6603 5236 6909
6604 5085 7691
6605 471  152 
6606 8549 5277
6607 5726 731 
6608 8069 5163
6609 2751 8165
6610 9972 9985
6611 9039 5695
6612 2851 3038
6613 7619 5941
6614 5771 6112
6615 3840 3654
6616 3410 5811
6617 133  640 
6618 3464 4967
6619 5344 6039
6620 7233 4056
6621 4584 3629
6622 1690 6516
6623 7609 3460
6624 4057 2565
6625 7942 4693
6626 5652 6343
6627 8473 3675
6628 4393 7569
6629 5327 4274
6630 6600 315 
6631 7821 6655
6632 5783 6372
6633 3270 7588
6634 5093 5129
6635 8692 4600
6636 7137 5232
6637 2859 9609
6638 6463 5488
6639 5660 6326
6640 7093 4138
6641 4137 8388
6642 1578 1047
6643 2588 1767
6644 5425 7888
6645 5466 8825
6646 5968 8971
6647 8035 5130
6648 9648 4829
6649 7894 4272
6650 7929 3943
6651 6458 5151
6652 7391 3702
6653 2528 5027
6654 987  9865
6655 9710 1687
6656 3130 1069
6657 4064 3319
6658 6447 8859
6659 5400 6749
6660 4636 5579
6661 4529 7614
6662 115  2690
6663 8457 5771
6664 7967 5014
6665 4812 7152
6666 8550 5914
6667 3179 7206
6668 8450 4263
6669 3540 8186
6670 4541 8167
6671 654  1919
6672 7107 9545
6673 7837 4152
6674 1722 2378
6675 4583 4881
6676 5309 4814
6677 2054 8785
6678 9064 4721
6679 7931 6236
6680 8771 3837
6681 5986 250 
6682 6654 763 
6683 4591 6065
6684 8284 4415
6685 7550 361 
6686 777  1194
6687 7593 8797
6688 7836 4327
6689 5632 7543
6690 8826 4946
6691 7217 4356
6692 6275 6937
6693 5214 5334
6694 928  5969
6695 9878 4445
6696 2080 6687
6697 6722 8827
6698 6170 8364
6699 5683 8478
6700 4921 4061
6701 4878 5745
6702 5611 6890
6703 3869 7133
6704 1493 7548
6705 994  1653
6706 6908 9327
6707 5533 8354
6708 1283 6631
6709 2427 6978
6710 5769 6552
6711 4237 6241
6712 8320 7029
6713 5628 6366
6714 4959 5395
6715 9004 3879
6716 7111 440 
6717 6438 674 
6718 2192 3449
6719 8942 1155
6720 9190 5306
6721 4554 5379
6722 5189 6211
6723 9150 6595
6724 3101 7775
6725 6096 4450
6726 5163 5376
6727 4676 7648
6728 5355 7213
6729 4072 2082
6730 4059 8277
6731 4846 7111
6732 7961 4185
6733 598  9189
6734 57   9595
6735 2852 7586
6736 5890 7462
6737 7051 8676
6738 5817 6654
6739 1939 9925
6740 5642 47  
6741 2832 2805
6742 3556 7224
6743 6420 3240
6744 8796 6572
6745 1527 110 
6746 8542 1439
6747 7883 3579
6748 6948 5016
6749 5686 5350
6750 5102 6986
6751 3968 9679
6752 7829 4502
6753 5893 7921
6754 5952 8249
6755 8200 4030
6756 4323 8319
6757 1228 6468
6758 2504 4711
6759 3860 9320
6760 8138 4471
6761 6604 6794
6762 8611 6116
6763 6724 8509
6764 9349 8485
6765 5008 3967
6766 5494 7894
6767 304  9212
6768 8014 4780
6769 5500 5506
6770 9877 9829
6771 8799 1972
6772 6023 5771
6773 5295 5648
6774 9981 8389
6775 8313 5317
6776 5773 6809
6777 6086 3732
6778 4988 6548
6779 9294 5408
6780 9287 5256
6781 8026 5049
6782 6046 7462
6783 5961 3918
6784 8238 1854
6785 4867 8256
6786 4544 5780
6787 9587 7195
6788 902  4224
6789 4761 7776
6790 8195 9   
6791 5912 1485
6792 715  5433
6793 7770 3609
6794 2620 4791
6795 3666 1998
6796 7708 7862
6797 9245 4035
6798 8933 2747
6799 6387 1534
6800 8702 4780
6801 4841 7777
6802 4337 7393
6803 3362 8013
6804 1150 2309
6805 8865 7924
6806 7464 5432
6807 6738 8323
6808 7663 6718
6809 6049 7748
6810 7118 6118
6811 6264 7417
6812 9435 7687
6813 4442 7211
6814 7388 4571
6815 5949 7736
6816 4965 7138
6817 4227 7170
6818 4946 5058
6819 7326 6158
6820 1967 6371
6821 8420 2734
6822 8787 5998
6823 7707 2370
6824 7970 6181
6825 4754 7979
6826 5941 4845
6827 8420 2621
6828 1623 5662
6829 4181 1717
6830 5248 1946
6831 724  6399
6832 4718 8359
6833 7655 5624
6834 5463 4994
6835 4273 6687
6836 4185 7719
6837 2710 8840
6838 3150 9813
6839 5566 6398
6840 4409 6626
6841 9416 7333
6842 4340 5326
6843 6187 6704
6844 7661 4289
6845 2818 3654
6846 8038 5917
6847 5519 7385
6848 4830 7473
6849 762  939 
6850 7898 3152
6851 3868 8332
6852 7058 5995
6853 6179 9947
6854 9884 8467
6855 1293 5611
6856 9435 4829
6857 6380 9204
6858 8984 9874
6859 9009 9735
6860 5822 6740
6861 8577 7952
6862 9727 8869
6863 7354 3953
6864 4961 7228
6865 4586 7030
6866 2778 3096
6867 1743 7181
6868 8198 3431
6869 4774 5106
6870 4512 7148
6871 6005 3423
6872 6676 8868
6873 8493 7029
6874 6311 7191
6875 9282 4828
6876 4917 4224
6877 8523 5035
6878 3930 470 
6879 93   2219
6880 5131 5917
6881 7900 4325
6882 6048 4150
6883 5328 7153
6884 5811 4392
6885 5192 5847
6886 4421 6923
6887 4288 7341
6888 7134 3656
6889 4408 5167
6890 6266 7135
6891 5199 5483
6892 2369 7914
6893 4667 1855
6894 4782 5300
6895 5414 7153
6896 1486 6557
6897 3286 1827
6898 9141 6037
6899 5364 7413
6900 2335 8400
6901 4879 6911
6902 7514 1385
6903 6808 4878
6904 3156 1971
6905 8935 5233
6906 4922 7655
6907 7814 7369
6908 6279 9376
6909 5671 8315
6910 5351 6971
6911 1977 7571
6912 7290 8188
6913 7964 8117
6914 7044 4277
6915 3034 4102
6916 5774 7031
6917 3874 3652
6918 6935 5400
6919 6165 6904
6920 7810 4848
6921 6528 7355
6922 5745 8138
6923 5486 6020
6924 6147 5630
6925 9481 3420
6926 2498 6295
6927 7276 3600
6928 5354 7222
6929 5673 6790
6930 6671 7312
6931 8517 8168
6932 7370 9896
6933 5836 8431
6934 5954 8070
6935 7320 9831
6936 6555 3471
6937 7812 5231
6938 7887 4789
6939 6752 8147
6940 5941 7069
6941 1273 5658
6942 6791 5427
6943 1791 6455
6944 3974 4973
6945 7624 4091
6946 6892 5379
6947 7793 6460
6948 7908 4346
6949 3886 8832
6950 6671 7719
6951 5781 3110
6952 3753 5477
6953 1009 5394
6954 1143 5267
6955 5928 8045
6956 821  598 
6957 845  3952
6958 6511 7196
6959 8789 324 
6960 874  532 
6961 5099 7214
6962 1597 1742
6963 6231 6758
6964 1672 8496
6965 9035 972 
6966 5092 7326
6967 9610 5046
6968 815  7084
6969 9442 4329
6970 6789 1574
6971 6971 4716
6972 9829 915 
6973 1375 8844
6974 4575 7345
6975 5648 5839
6976 5501 3043
6977 3625 8351
6978 5155 5914
6979 6682 5077
6980 4457 7016
6981 4918 7407
6982 2567 5586
6983 7788 3480
6984 7606 5125
6985 5729 4818
6986 5979 1125
6987 1225 1018
6988 3051 9936
6989 3788 5647
6990 6001 6950
6991 2074 6548
6992 1407 1842
6993 7467 4958
6994 6206 7913
6995 7150 5347
6996 374  6371
6997 9170 640 
6998 3983 1558
6999 4664 8329
7000 8355 3247
7001 1582 5712
7002 2322 2617
7003 2331 5333
7004 4155 8312
7005 7616 5383
7006 6984 1033
7007 2053 2063
7008 8264 3762
7009 2576 7919
7010 7988 18  
7011 9305 4060
7012 386  5393
7013 6330 6523
7014 5240 7538
7015 473  4965
7016 2535 8493
7017 8817 5611
7018 7944 4767
7019 5633 7012
7020 4831 5142
7021 4451 8521
7022 4526 4032
7023 6646 6376
7024 3410 5586
7025 7025 1741
7026 7915 6639
7027 4792 7413
7028 6781 2384
7029 9180 8747
7030 7821 3336
7031 4395 9359
7032 4262 7665
7033 4801 6749
7034 6258 6603
7035 6954 7682
7036 1208 3773
7037 7631 4062
7038 8561 2144
7039 5819 624 
7040 4961 572 
7041 5959 8407
7042 6141 5922
7043 7069 5122
7044 6081 9792
7045 4303 8844
7046 1984 1019
7047 4914 6075
7048 3483 5485
7049 7164 7138
7050 7267 4479
7051 4658 8732
7052 7647 9086
7053 7691 7302
7054 8812 2467
7055 7376 7665
7056 7057 4165
7057 1618 1059
7058 5577 5006
7059 5299 7164
7060 5595 5717
7061 4949 6971
7062 5566 6499
7063 9851 6087
7064 6892 4223
7065 9828 2230
7066 5714 6428
7067 7415 3180
7068 2051 7472
7069 5003 6552
7070 9306 4749
7071 8257 4736
7072 7779 3557
7073 3954 6967
7074 4868 6503
7075 8433 2067
7076 6687 3464
7077 9063 1583
7078 5462 6038
7079 8643 817 
7080 4352 3613
7081 2724 2560
7082 2274 9392
7083 6129 8457
7084 3610 7713
7085 4775 8269
7086 8337 5355
7087 3314 8548
7088 8179 7246
7089 5614 4315
7090 7557 3380
7091 5549 6919
7092 1989 2208
7093 2787 2589
7094 8658 3629
7095 8271 3607
7096 388  657 
7097 8908 3961
7098 3692 1962
7099 346  9072
7100 1619 9175
7101 8021 5260
7102 5131 5264
7103 7406 5151
7104 5588 8757
7105 8435 4487
7106 5369 6854
7107 4589 7206
7108 7211 567 
7109 9481 9680
7110 4944 6514
7111 5787 4310
7112 8250 5527
7113 2760 9878
7114 4344 6693
7115 5571 6332
7116 9534 3557
7117 4549 9949
7118 6236 7622
7119 5862 2084
7120 4142 8400
7121 4404 7231
7122 6435 6804
7123 5431 6146
7124 4785 6741
7125 7250 4371
7126 2909 7160
7127 3633 7244
7128 6769 3226
7129 7389 2767
7130 957  7227
7131 4456 6532
7132 5839 6198
7133 3360 7643
7134 7623 5422
7135 437  1206
7136 6936 4955
7137 8581 5127
7138 156  8163
7139 4810 7246
7140 217  2516
7141 8457 5798
7142 1587 8360
7143 1037 9249
7144 7825 2497
7145 2447 6986
7146 7429 9504
7147 6779 2248
7148 5792 7925
7149 4571 7579
7150 4516 7432
7151 8305 5163
7152 5176 4837
7153 3046 5406
7154 1471 2829
7155 6400 8291
7156 7775 5756
7157 8529 4999
7158 4330 8729
7159 6552 5974
7160 3681 5790
7161 7441 5892
7162 5025 9506
7163 3289 1213
7164 8777 5690
7165 4264 737 
7166 5071 8355
7167 6021 3064
7168 5550 5793
7169 8116 2214
7170 1806 5858
7171 7843 4514
7172 7571 5552
7173 8571 2808
7174 2929 4032
7175 8527 5320
7176 5112 7006
7177 5645 6242
7178 2630 6588
7179 7257 5203
7180 6010 6435
7181 1721 9433
7182 5629 6080
7183 1741 8636
7184 2714 6590
7185 1541 1205
7186 5826 2841
7187 9834 8988
7188 9327 4527
7189 7655 4919
7190 7925 5678
7191 7702 4099
7192 2416 8553
7193 5075 8679
7194 7036 924 
7195 761  8717
7196 5937 5589
7197 4370 6973
7198 5732 5781
7199 4154 6099
7200 5352 6650
7201 3480 7700
7202 349  1063
7203 8724 3276
7204 924  779 
7205 486  8639
7206 4485 6866
7207 2716 9154
7208 2041 6807
7209 6910 58  
7210 6922 2054
7211 5456 8701
7212 7624 4032
7213 7376 4257
7214 5234 3251
7215 6401 289 
7216 4012 623 
7217 9163 6308
7218 6313 5813
7219 1658 3491
7220 5779 2395
7221 4157 4736
7222 8028 5013
7223 1200 7158
7224 7868 5505
7225 203  9241
7226 9655 6919
7227 5958 5235
7228 4564 7480
7229 7078 4874
7230 4018 7630
7231 7604 7499
7232 3582 5366
7233 3668 4487
7234 5469 7288
7235 885  7116
7236 9188 4894
7237 3738 2393
7238 5798 274 
7239 6192 4351
7240 7400 7788
7241 2224 6888
7242 4743 2061
7243 4396 6520
7244 4401 5922
7245 9607 5971
7246 8675 9105
7247 5894 6003
7248 8512 2454
7249 1598 271 
7250 1684 5109
7251 4809 8937
7252 9821 960 
7253 5920 6462
7254 6283 5523
7255 6783 6045
7256 1269 4949
7257 6812 4854
7258 5475 7154
7259 9669 8384
7260 5449 4964
7261 6031 8016
7262 8241 4879
7263 4635 6004
7264 6954 2278
7265 1309 4288
7266 4449 7314
7267 5086 1426
7268 3291 6972
7269 9798 7024
7270 6934 5502
7271 2496 4859
7272 4260 5990
7273 5434 1562
7274 6308 7025
7275 5780 5409
7276 5905 5759
7277 1326 3220
7278 8160 4545
7279 4801 6768
7280 8452 7546
7281 59   4382
7282 9933 9566
7283 3838 6820
7284 2874 7526
7285 9597 6791
7286 4704 9497
7287 7200 4593
7288 5341 1048
7289 4189 3717
7290 519  9199
7291 9966 8062
7292 5183 6825
7293 6620 6550
7294 6630 7956
7295 4982 425 
7296 5646 7534
7297 2933 5549
7298 6041 7721
7299 3329 2613
7300 4758 2626
7301 8363 4913
7302 1008 68  
7303 1303 9206
7304 5087 8014
7305 1013 9858
7306 9538 7338
7307 7337 6852
7308 1244 1179
7309 4097 3146
7310 3386 5389
7311 5793 6528
7312 6920 1784
7313 5798 8038
7314 4874 8326
7315 7137 4878
7316 3130 5113
7317 7335 899 
7318 6350 3335
7319 5004 7302
7320 6161 6146
7321 8088 9358
7322 9715 3648
7323 3752 7130
7324 7886 5373
7325 7550 1115
7326 5521 7045
7327 4843 5127
7328 6959 6744
7329 9129 8463
7330 2560 6937
7331 3874 5153
7332 2811 7047
7333 4321 6525
7334 2940 9860
7335 609  7350
7336 6481 8582
7337 599  3562
7338 6370 2834
7339 2171 5420
7340 8131 5739
7341 5237 6696
7342 4953 6702
7343 3468 5980
7344 5395 2539
7345 7210 2475
7346 4790 7702
7347 7986 3172
7348 4785 1941
7349 7548 4129
7350 4547 1638
7351 7242 3607
7352 7832 5025
7353 5312 8701
7354 3625 5817
7355 4828 4632
7356 4120 6376
7357 7911 411 
7358 5665 8370
7359 9178 8197
7360 6876 6644
7361 7668 4796
7362 4502 7037
7363 8254 8312
7364 6119 7739
7365 5188 7151
7366 5661 7295
7367 6287 8373
7368 4963 5588
7369 6596 5242
7370 1932 5118
7371 7857 4461
7372 5205 6764
7373 9550 66  
7374 6409 9061
7375 5916 7507
7376 5399 6547
7377 7955 4028
7378 8329 4982
7379 5108 7105
7380 2294 9448
7381 6560 4894
7382 5428 5378
7383 5880 8731
7384 9707 8828
7385 5136 6530
7386 8378 5407
7387 6778 6782
7388 4907 7700
7389 8837 32  
7390 7772 5210
7391 8726 2593
7392 9526 9721
7393 6595 7609
7394 5510 5832
7395 6457 7155
7396 8300 5324
7397 1127 9031
7398 7300 5883
7399 5184 7154
7400 5371 7717
7401 9815 2459
7402 4387 5521
7403 2491 3836
7404 4363 9139
7405 6833 4145
7406 7379 4122
7407 3240 8041
7408 4630 9458
7409 8978 3923
7410 9821 9976
7411 5618 3381
7412 8387 4386
7413 8329 9140
7414 2101 2683
7415 9939 7153
7416 4270 8410
7417 3176 9448
7418 8774 5069
7419 6336 6020
7420 4059 7235
7421 6115 5049
7422 1381 9356
7423 4990 9026
7424 5502 7324
7425 6475 7308
7426 3008 5852
7427 5482 8423
7428 5653 8764
7429 5314 7390
7430 976  8925
7431 5323 8963
7432 9082 6748
7433 5895 94  
7434 3889 5590
7435 3923 1398
7436 9909 8724
7437 5897 8257
7438 8072 5312
7439 8580 4145
7440 7889 3896
7441 3938 7373
7442 7006 8351
7443 5695 6701
7444 618  8256
7445 3193 8055
7446 7756 680 
7447 8523 3665
7448 8649 750 
7449 8457 4910
7450 8278 5846
7451 6293 2760
7452 5285 4947
7453 7167 5228
7454 7305 4861
7455 4614 4310
7456 8766 638 
7457 4923 7845
7458 6888 3641
7459 3349 8206
7460 8660 1113
7461 5625 5036
7462 2436 4279
7463 7089 2659
7464 7811 1564
7465 6573 7742
7466 9085 4933
7467 8347 7965
7468 8824 553 
7469 4102 4388
7470 9880 5257
7471 6193 3155
7472 4365 7895
7473 6663 2337
7474 5673 5425
7475 4461 8162
7476 2682 9684
7477 8591 4889
7478 5062 5631
7479 7443 6651
7480 6292 4971
7481 9620 7901
7482 8033 9106
7483 6781 4750
7484 7234 1892
7485 2562 3674
7486 8099 312 
7487 5246 6395
7488 9723 5358
7489 5053 6440
7490 2111 83  
7491 6958 4932
7492 535  2365
7493 5979 5043
7494 3364 603 
7495 4868 3415
7496 5447 7333
7497 8014 6752
7498 7075 8752
7499 1605 3644
7500 5117 7399
7501 7984 1506
7502 59   7275
7503 6611 6910
7504 4607 7069
7505 5524 7203
7506 4771 4951
7507 4784 6627
7508 7928 4486
7509 9991 7399
7510 4056 1700
7511 9554 592 
7512 7075 3228
7513 4053 4369
7514 1534 103 
7515 5035 9747
7516 5339 7900
7517 5186 8539
7518 8048 1735
7519 9833 9869
7520 5336 7507
7521 5932 7104
7522 6008 7590
7523 5139 6673
7524 7163 7716
7525 3648 6085
7526 7300 4021
7527 5068 8170
7528 9220 4884
7529 5668 5152
7530 5815 8918
7531 8569 4536
7532 993  1297
7533 4648 8052
7534 5352 5172
7535 2584 9517
7536 7499 6840
7537 4295 7540
7538 8316 5426
7539 8409 4560
7540 5372 5073
7541 5379 5965
7542 1338 278 
7543 3637 1826
7544 9143 8599
7545 5573 8787
7546 8405 4612
7547 7625 4094
7548 8140 4734
7549 2121 8819
7550 7675 4276
7551 8988 3560
7552 7550 7135
7553 5548 4299
7554 5455 6323
7555 6047 3968
7556 2535 706 
7557 6785 7906
7558 5088 5274
7559 1684 4547
7560 4217 8703
7561 9773 4955
7562 3226 132 
7563 6970 4881
7564 2697 3206
7565 7845 4253
7566 4163 5912
7567 5505 3867
7568 5040 8296
7569 6667 7811
7570 9309 6815
7571 4242 6458
7572 8934 6421
7573 5563 8324
7574 9418 4837
7575 5862 6279
7576 4973 4933
7577 779  5850
7578 7151 8210
7579 1511 9661
7580 4435 7294
7581 9943 5267
7582 4646 4489
7583 6853 7615
7584 5902 7120
7585 8008 4514
7586 4902 6347
7587 5561 6855
7588 4543 8172
7589 7742 9573
7590 4089 5781
7591 8198 1338
7592 4973 4344
7593 5955 7127
7594 7231 1616
7595 1213 4000
7596 8050 3591
7597 5487 7243
7598 4586 6491
7599 2515 5654
7600 1021 67  
7601 4195 592 
7602 4301 6463
7603 7625 1177
7604 4776 6980
7605 4872 4611
7606 6277 1930
7607 7814 5384
7608 8448 4431
7609 7787 1061
7610 6886 3974
7611 9992 6678
7612 8880 2979
7613 5670 7900
7614 5344 7866
7615 2831 5866
7616 5270 7495
7617 4565 7216
7618 4132 8693
7619 5027 7111
7620 9915 1814
7621 3090 4714
7622 7452 4773
7623 4710 6023
7624 3383 6250
7625 7951 5465
7626 5428 6205
7627 7345 5336
7628 5810 6438
7629 4103 656 
7630 7128 9037
7631 3382 6566
7632 8629 3622
7633 1476 8159
7634 5159 7560
7635 4084 8656
7636 2946 8486
7637 5138 6390
7638 6085 7877
7639 7247 8341
7640 3528 8522
7641 3367 6535
7642 2049 6794
7643 7524 2792
7644 4640 8057
7645 5759 8691
7646 3279 6773
7647 1712 5301
7648 5265 8594
7649 7800 6929
7650 7939 6827
7651 2115 4040
7652 5293 5585
7653 7263 3959
7654 5273 6164
7655 3817 5380
7656 4935 7933
7657 3400 5391
7658 9456 1062
7659 5554 8963
7660 5147 5940
7661 5028 7154
7662 4762 5622
7663 6929 6036
7664 5293 539 
7665 5262 6086
7666 3241 4029
7667 5769 954 
7668 755  4210
7669 5585 8488
7670 6793 5909
7671 3653 2349
7672 5326 6957
7673 8497 5727
7674 7716 5613
7675 4707 5823
7676 3911 6174
7677 4655 5128
7678 1012 7462
7679 4187 1963
7680 255  5591
7681 5630 4606
7682 2618 6534
7683 9030 7342
7684 4329 186 
7685 5161 8576
7686 595  7315
7687 7635 1328
7688 2742 2095
7689 5461 8168
7690 4203 8667
7691 9299 6093
7692 5081 6357
7693 8076 4495
7694 297  885 
7695 4010 6832
7696 7227 4588
7697 7360 6631
7698 9422 5741
7699 7601 8058
7700 8242 5982
7701 8279 3922
7702 7713 3673
7703 4695 6495
7704 2012 6032
7705 5210 1405
7706 4668 6518
7707 154  8009
7708 7409 5119
7709 8357 5721
7710 3876 6298
7711 8597 5546
7712 8126 5918
7713 5230 5514
7714 792  7133
7715 9466 5110
7716 7159 6455
7717 4498 7184
7718 7068 4226
7719 4921 8091
7720 7423 3671
7721 6911 5207
7722 4437 7398
7723 7427 8783
7724 5197 7929
7725 5158 7745
7726 4025 6419
7727 9228 5145
7728 2563 971 
7729 6327 7435
7730 4047 7389
7731 8420 5945
7732 8384 9431
7733 9328 8364
7734 5852 8222
7735 4049 7113
7736 351  9168
7737 9293 2150
7738 4533 4529
7739 8940 4438
7740 5269 9709
7741 7923 4319
7742 1371 443 
7743 7250 4687
7744 3899 5900
7745 4594 6692
7746 5865 6653
7747 6125 5480
7748 5561 5685
7749 6841 2134
7750 5587 6932
7751 8256 4642
7752 4720 2481
7753 2904 1139
7754 7759 4963
7755 2961 2676
7756 8931 2152
7757 7195 3856
7758 9452 6539
7759 5361 1772
7760 7433 3079
7761 9099 2768
7762 6794 2335
7763 7694 4490
7764 598  5986
7765 5244 6027
7766 7296 5401
7767 7381 6369
7768 6363 9999
7769 7646 6498
7770 5026 6689
7771 4297 5394
7772 6009 7605
7773 3967 7082
7774 8651 8007
7775 6510 5503
7776 4651 5416
7777 9905 8925
7778 4245 7607
7779 4176 7112
7780 6286 6028
7781 4020 6538
7782 1040 9312
7783 4738 8909
7784 8266 5710
7785 6078 6918
7786 6354 8026
7787 6660 9783
7788 2859 2298
7789 8775 5407
7790 5008 6516
7791 5415 7441
7792 4616 6798
7793 3914 1259
7794 5127 3833
7795 7061 2309
7796 3937 6314
7797 8194 2360
7798 6364 8250
7799 7503 7461
7800 3979 5574
7801 5448 7513
7802 9220 9116
7803 8597 4762
7804 5498 7380
7805 9553 1724
7806 5638 8639
7807 5744 4791
7808 5644 9272
7809 9085 887 
7810 7292 3636
7811 5962 7470
7812 5817 6177
7813 5581 4691
7814 3093 4524
7815 5046 5642
7816 3833 7459
7817 5133 5642
7818 6087 3913
7819 4966 5060
7820 7355 4347
7821 5401 6022
7822 6043 4595
7823 1725 6848
7824 7216 6620
7825 8424 7433
7826 8866 5472
7827 4317 6391
7828 5167 8403
7829 3115 626 
7830 7470 8830
7831 8550 2923
7832 4249 2949
7833 8086 4689
7834 6563 5109
7835 6123 7287
7836 3790 5985
7837 48   4123
7838 4045 4252
7839 5141 6311
7840 4405 1778
7841 3243 3251
7842 6647 6119
7843 1502 1344
7844 9602 6281
7845 4766 2441
7846 6058 3444
7847 4870 7771
7848 7587 3707
7849 7821 7221
7850 5334 8059
7851 6645 7671
7852 1685 8130
7853 4488 4563
7854 5723 1445
7855 3891 6922
7856 5809 6139
7857 8167 5117
7858 4163 8462
7859 922  9656
7860 5093 6993
7861 4450 1333
7862 5934 5197
7863 3141 9331
7864 8347 5511
7865 6978 6124
7866 2777 9832
7867 8691 4533
7868 8961 2668
7869 6808 9319
7870 8284 3421
7871 5203 7558
7872 9369 4984
7873 8101 4401
7874 7371 4489
7875 1135 3263
7876 7680 2790
7877 6950 4088
7878 9596 7340
7879 5640 7919
7880 2426 9458
7881 4220 7800
7882 6668 9748
7883 4280 3058
7884 7115 3848
7885 9046 3655
7886 7804 3936
7887 5832 8316
7888 6837 4019
7889 7148 5263
7890 1992 8227
7891 7775 4358
7892 305  6238
7893 1181 2474
7894 5033 5622
7895 690  7696
7896 4466 5235
7897 8203 789 
7898 7728 4782
7899 1901 2463
7900 5268 5713
7901 3787 2020
7902 7382 7032
7903 2633 8386
7904 5558 7642
7905 745  2409
7906 8998 7203
7907 191  5499
7908 6822 3778
7909 3809 7164
7910 827  2463
7911 7208 3558
7912 8558 5641
7913 7843 8891
7914 2640 9846
7915 5021 9336
7916 6846 6407
7917 4331 8144
7918 6794 3249
7919 4504 1095
7920 5125 5319
7921 5953 5582
7922 7989 4264
7923 7612 2776
7924 6308 9181
7925 9275 2607
7926 1065 1571
7927 7710 4296
7928 2496 3276
7929 7357 3212
7930 6372 7639
7931 704  1605
7932 8979 5111
7933 8694 5241
7934 1108 8355
7935 7775 4046
7936 5126 7425
7937 6052 8058
7938 9784 4610
7939 2254 2210
7940 4734 4922
7941 975  4855
7942 7217 4711
7943 8318 7331
7944 8539 5799
7945 1203 9135
7946 7588 5433
7947 4896 7455
7948 8844 3421
7949 2567 8918
7950 8167 4982
7951 4511 7111
7952 6090 7014
7953 6614 1583
7954 5605 7346
7955 8552 4126
7956 5164 8036
7957 2885 7866
7958 5327 7592
7959 6957 9864
7960 7887 5769
7961 8124 4973
7962 7837 5476
7963 5496 7987
7964 5272 6461
7965 5708 5703
7966 9412 1269
7967 6572 4362
7968 7145 4568
7969 7999 7029
7970 4297 8390
7971 5141 6963
7972 2792 2583
7973 6160 8292
7974 6227 7248
7975 3797 5436
7976 1388 6668
7977 8848 5256
7978 5269 7427
7979 3904 4038
7980 6339 1255
7981 4655 1235
7982 9014 7036
7983 7534 4811
7984 3373 6114
7985 8249 3239
7986 8519 3699
7987 5331 5634
7988 4111 7367
7989 5965 8008
7990 2639 5929
7991 4427 1657
7992 4774 5870
7993 7958 6043
7994 2244 3515
7995 8958 6891
7996 8417 2835
7997 7922 2259
7998 3656 6043
7999 8638 3341
8000 5010 6863
8001 6606 5124
8002 6822 7135
8003 414  3319
8004 7108 4593
8005 4500 3104
8006 6368 2385
8007 4873 9437
8008 4915 7131
8009 3606 4637
8010 5559 4090
8011 4541 2852
8012 4417 7395
8013 3252 3540
8014 4773 8787
8015 4418 7715
8016 5827 2151
8017 4689 6843
8018 4811 5555
8019 8762 9817
8020 3758 5034
8021 321  4559
8022 5683 7288
8023 2631 8700
8024 1730 4677
8025 1518 9442
8026 9365 1703
8027 1736 4634
8028 8449 6817
8029 7220 8516
8030 6338 8666
8031 5774 7868
8032 9929 5659
8033 2771 316 
8034 4779 4235
8035 4316 6717
8036 5123 7351
8037 5415 4595
8038 5187 9362
8039 4768 7019
8040 3172 4628
8041 8884 3022
8042 4624 7750
8043 6230 6457
8044 4208 6052
8045 3207 7116
8046 3155 6247
8047 5297 5184
8048 7481 3731
8049 8180 2059
8050 132  6381
8051 1929 7211
8052 8320 9597
8053 5740 6083
8054 4381 1798
8055 4862 6924
8056 9154 1683
8057 7869 4274
8058 5041 7484
8059 5655 7679
8060 5785 6673
8061 8350 7848
8062 6098 316 
8063 4620 7900
8064 8447 2429
8065 4063 6439
8066 7424 3887
8067 8887 4305
8068 8458 9319
8069 5877 6785
8070 3437 3216
8071 4190 7952
8072 5776 5679
8073 5948 8172
8074 5840 7981
8075 5399 7947
8076 6764 3916
8077 371  3286
8078 5648 6612
8079 7146 9623
8080 6116 5506
8081 9811 3179
8082 5143 3039
8083 7010 3647
8084 3946 9894
8085 5646 8178
8086 7583 7600
8087 7513 4492
8088 5219 6389
8089 1133 8872
8090 5811 8877
8091 89   2018
8092 2665 2579
8093 9215 576 
8094 6080 6582
8095 7053 5571
8096 2360 9606
8097 4462 2520
8098 4561 4826
8099 5126 5060
8100 7350 6978
8101 3071 7688
8102 7638 7714
8103 379  4622
8104 5529 6354
8105 5882 6368
8106 6224 8317
8107 6062 775 
8108 3951 6250
8109 7499 7549
8110 6035 8101
8111 4323 5268
8112 5054 298 
8113 8534 7784
8114 4692 6803
8115 7756 4156
8116 5069 6723
8117 5133 7502
8118 8060 4490
8119 4090 9789
8120 4837 6119
8121 7902 4477
8122 4701 8299
8123 5112 4601
8124 4846 6618
8125 5463 6912
8126 5252 5187
8127 3489 2368
8128 2868 5796
8129 8387 8027
8130 7369 4762
8131 6976 9627
8132 9185 3951
8133 8445 5846
8134 7249 885 
8135 4496 7296
8136 8220 6849
8137 926  3538
8138 5618 3070
8139 7508 2766
8140 3267 6244
8141 9288 4900
8142 8038 3950
8143 7975 3194
8144 3649 6071
8145 5319 5947
8146 4221 6826
8147 2789 7821
8148 938  1431
8149 5557 6439
8150 7825 5670
8151 5349 7504
8152 1653 5121
8153 7952 6888
8154 5998 2631
8155 886  7155
8156 5485 8049
8157 4472 7619
8158 2048 8619
8159 9862 9218
8160 4699 7792
8161 4204 6194
8162 3379 3053
8163 5892 9044
8164 5425 5521
8165 2210 1360
8166 5213 7271
8167 3248 7876
8168 4750 8742
8169 4129 271 
8170 7583 4236
8171 6386 7549
8172 9669 1722
8173 4258 7052
8174 376  8940
8175 5109 1094
8176 8775 299 
8177 3552 6882
8178 5072 7601
8179 8549 7785
8180 8275 5128
8181 5505 7596
8182 6474 5126
8183 7810 9899
8184 321  5391
8185 1197 7   
8186 4552 8379
8187 5171 9694
8188 9617 2149
8189 4788 8376
8190 5273 7192
8191 7647 5357
8192 5602 5443
8193 9561 6632
8194 5964 9459
8195 1194 6292
8196 6743 1409
8197 6176 7305
8198 5726 7742
8199 5700 4542
8200 7631 2394
8201 5112 6044
8202 540  9730
8203 8952 1454
8204 5053 2393
8205 4826 7661
8206 2567 756 
8207 8596 4087
8208 7282 3075
8209 7553 4718
8210 6424 8666
8211 4527 7359
8212 5130 5973
8213 4446 6346
8214 9468 4961
8215 7302 3991
8216 5224 4924
8217 5404 4640
8218 133  8220
8219 7671 8921
8220 4738 3302
8221 8468 5324
8222 2619 6446
8223 937  9492
8224 3147 8131
8225 5745 4984
8226 6966 7655
8227 3758 7956
8228 1168 5747
8229 5417 7084
8230 5887 4902
8231 6788 6758
8232 2965 1600
8233 6207 105 
8234 6728 6764
8235 5187 8758
8236 1768 1451
8237 4853 6967
8238 2491 9612
8239 4339 7601
8240 8532 5258
8241 1282 8654
8242 8398 4226
8243 5751 4455
8244 843  5346
8245 914  9309
8246 8198 2713
8247 9658 5700
8248 5196 6236
8249 4825 7945
8250 1027 120 
8251 4695 7091
8252 7436 5684
8253 1746 1196
8254 4330 7756
8255 5729 7332
8256 4409 3994
8257 4451 7007
8258 4641 8202
8259 4854 7132
8260 5067 5784
8261 5991 8171
8262 7459 4526
8263 6082 6353
8264 3286 1819
8265 5353 5948
8266 6327 5722
8267 9382 5924
8268 8009 4845
8269 6550 7284
8270 5055 4818
8271 6901 9686
8272 5015 875 
8273 5591 6856
8274 125  8949
8275 5352 6879
8276 8763 173 
8277 4592 7233
8278 4446 7292
8279 7221 6026
8280 1067 4920
8281 7650 5147
8282 4057 1802
8283 834  5990
8284 3569 6855
8285 7966 7732
8286 3967 7792
8287 5515 8314
8288 4615 7999
8289 9580 6839
8290 5062 7042
8291 4505 6414
8292 3181 6109
8293 6440 2898
8294 4736 5706
8295 7057 1165
8296 3539 234 
8297 7536 2040
8298 1365 2130
8299 1931 2994
8300 4781 7369
8301 5657 6635
8302 5305 7460
8303 4950 7195
8304 8422 5994
8305 8254 5064
8306 2901 8479
8307 3726 5408
8308 7539 4705
8309 4562 6219
8310 4698 5587
8311 3959 6483
8312 5443 6402
8313 246  9777
8314 8935 3641
8315 3779 7218
8316 3253 2527
8317 2863 3111
8318 3781 8714
8319 4857 6495
8320 8753 6474
8321 5848 8060
8322 7720 3114
8323 6998 392 
8324 9208 4460
8325 565  6534
8326 7894 4651
8327 4410 7501
8328 6965 8748
8329 8885 4562
8330 4628 1271
8331 251  3105
8332 6963 6332
8333 8185 5119
8334 4214 9201
8335 7410 8548
8336 4409 2048
8337 2059 6971
8338 7744 5002
8339 2914 2042
8340 3183 5169
8341 4026 7374
8342 5734 8198
8343 4476 5879
8344 5865 5322
8345 1476 5850
8346 7281 2563
8347 5692 961 
8348 8218 8913
8349 5567 5875
8350 1901 7652
8351 3696 6429
8352 9281 7986
8353 879  359 
8354 5370 4262
8355 4348 5151
8356 7521 5059
8357 4144 7103
8358 2368 3886
8359 5176 5817
8360 8600 7235
8361 7864 4639
8362 41   7086
8363 5325 6925
8364 2816 3865
8365 7708 5879
8366 5095 6726
8367 5718 7077
8368 9999 7624
8369 4304 9240
8370 1393 1742
8371 4449 8162
8372 7925 820 
8373 3060 2713
8374 4003 1037
8375 9508 5960
8376 2248 7325
8377 6420 5577
8378 6109 6319
8379 7969 8660
8380 7503 5228
8381 6012 8011
8382 5065 5675
8383 6061 4564
8384 5369 7336
8385 9773 3531
8386 5130 6690
8387 6664 7929
8388 7791 4593
8389 6591 19  
8390 7519 4500
8391 5699 2225
8392 7649 5246
8393 5102 4253
8394 6012 6296
8395 9446 3347
8396 8560 2565
8397 6294 1229
8398 5616 5512
8399 7691 4662
8400 8386 5037
8401 2862 9230
8402 8758 2976
8403 9049 220 
8404 9058 4858
8405 4646 4297
8406 6042 7776
8407 9491 5297
8408 6218 8153
8409 7744 4711
8410 6125 7110
8411 9061 4181
8412 427  1226
8413 6492 6303
8414 906  3985
8415 5019 655 
8416 4714 5176
8417 4928 4075
8418 8758 3625
8419 6055 6309
8420 6706 585 
8421 6088 8368
8422 6646 6944
8423 5257 6235
8424 193  954 
8425 1211 428 
8426 8293 5870
8427 5475 4415
8428 6654 8287
8429 5892 9411
8430 6367 7170
8431 6459 8287
8432 5947 6102
8433 9099 5200
8434 8857 3966
8435 1522 4293
8436 5629 5140
8437 8451 5298
8438 798  5983
8439 1433 8513
8440 8168 5863
8441 9617 4524
8442 5692 6489
8443 6734 6475
8444 4610 6279
8445 8126 5359
8446 4178 8537
8447 7757 6052
8448 1655 5685
8449 5568 8810
8450 828  5728
8451 7906 9816
8452 6961 5029
8453 3831 4016
8454 5739 7875
8455 3296 7088
8456 7705 3355
8457 8674 9807
8458 3415 2674
8459 4678 8233
8460 3509 7744
8461 3212 4780
8462 7410 6801
8463 7945 5482
8464 5274 6279
8465 5719 9177
8466 5439 732 
8467 2760 6039
8468 4383 5563
8469 7528 3891
8470 4316 5179
8471 3345 3319
8472 662  9148
8473 4797 7716
8474 5293 7903
8475 6766 3799
8476 3919 1873
8477 9774 5514
8478 6254 5662
8479 3559 2662
8480 874  5453
8481 3579 3884
8482 9927 2456
8483 6504 2346
8484 5952 6700
8485 5270 6533
8486 5697 5211
8487 7023 7078
8488 3876 7095
8489 6207 4751
8490 4653 7562
8491 1293 5248
8492 8993 7839
8493 9434 6971
8494 5778 6766
8495 2978 5674
8496 8775 5226
8497 7866 3911
8498 5870 6935
8499 4840 7833
8500 4924 6162
8501 4010 5416
8502 5629 5620
8503 5613 4411
8504 2612 5533
8505 5350 6679
8506 1234 713 
8507 2386 991 
8508 9538 7793
8509 7611 6230
8510 3001 3658
8511 5226 7056
8512 6158 5627
8513 8394 5519
8514 156  5594
8515 5687 8923
8516 6882 5038
8517 2212 5514
8518 8779 1352
8519 5609 6882
8520 7908 4882
8521 7029 5250
8522 6531 5675
8523 4869 5487
8524 5378 611 
8525 5096 5362
8526 7935 2327
8527 7037 5048
8528 8015 4211
8529 5295 6710
8530 3537 4551
8531 5099 8034
8532 5379 6324
8533 3709 5322
8534 8185 3789
8535 5607 997 
8536 5241 4308
8537 8199 7484
8538 8265 4024
8539 6493 399 
8540 5555 4267
8541 9964 6710
8542 6677 4569
8543 5603 2690
8544 3697 4755
8545 3648 5274
8546 8069 2285
8547 4685 7173
8548 2677 4643
8549 8449 5615
8550 1629 2146
8551 4881 4601
8552 5421 7070
8553 6592 6947
8554 8694 4586
8555 6763 3847
8556 4135 8207
8557 8469 4949
8558 765  6548
8559 6033 1921
8560 6078 5288
8561 8760 2274
8562 3786 8001
8563 7899 3454
8564 3404 4061
8565 2559 9379
8566 356  2303
8567 6330 3750
8568 140  1980
8569 4856 7242
8570 8079 6874
8571 4487 1730
8572 5217 6407
8573 3261 6384
8574 2478 990 
8575 5862 8988
8576 9486 1049
8577 8105 5192
8578 6986 5388
8579 1698 3466
8580 5613 829 
8581 1747 4951
8582 6437 5949
8583 9810 448 
8584 7673 4254
8585 5526 5464
8586 7588 9350
8587 4606 6793
8588 5343 6874
8589 5796 7737
8590 7760 4108
8591 8501 5300
8592 4838 6162
8593 8327 3599
8594 4853 6966
8595 8297 4310
8596 5272 8153
8597 5754 7167
8598 370  7942
8599 8967 4892
8600 6813 6500
8601 6438 7652
8602 2207 713 
8603 6856 5292
8604 5502 7907
8605 5932 2855
8606 5271 4727
8607 7548 6902
8608 237  8709
8609 4367 5697
8610 3878 7574
8611 7478 5148
8612 7858 4535
8613 5608 7598
8614 527  4311
8615 4648 7596
8616 7567 4857
8617 757  7549
8618 3823 5322
8619 9439 8086
8620 1676 2047
8621 3135 4739
8622 4135 2536
8623 5869 5803
8624 5189 9348
8625 5581 6126
8626 3774 9846
8627 8139 3709
8628 5022 5227
8629 5039 7847
8630 7314 5066
8631 5167 2715
8632 152  7859
8633 1915 7130
8634 5116 7409
8635 3320 9500
8636 2795 3112
8637 5048 5530
8638 5458 6813
8639 6274 7001
8640 5114 6598
8641 8091 4636
8642 8715 5005
8643 1242 4760
8644 6810 7924
8645 4319 5170
8646 944  2046
8647 4732 7452
8648 7365 8370
8649 7396 2775
8650 6085 6426
8651 5722 5572
8652 7313 5676
8653 4318 5630
8654 3579 9919
8655 5652 6618
8656 4995 7968
8657 2584 1923
8658 6682 3684
8659 6881 3964
8660 5133 7603
8661 648  2556
8662 8640 6210
8663 8763 4957
8664 4542 5723
8665 3506 7213
8666 6033 8221
8667 8058 3101
8668 8741 5869
8669 4690 5850
8670 4029 5462
8671 1638 4761
8672 8286 5809
8673 5873 5272
8674 5307 5918
8675 2314 5914
8676 4822 1322
8677 5556 272 
8678 1572 2607
8679 8821 5693
8680 4904 5139
8681 5808 7957
8682 9241 5352
8683 7540 5329
8684 9693 8816
8685 9051 480 
8686 5311 6507
8687 2032 5547
8688 8942 6623
8689 460  1102
8690 3194 2362
8691 1879 6408
8692 6340 7607
8693 6879 4918
8694 5477 8128
8695 6960 4377
8696 5975 4269
8697 4198 9597
8698 4204 2861
8699 5236 7105
8700 1661 1280
8701 6405 1550
8702 6017 7047
8703 3705 6280
8704 5303 2278
8705 4942 7959
8706 9882 5817
8707 9591 9074
8708 8562 1312
8709 8575 5010
8710 3188 917 
8711 5628 6461
8712 7616 3406
8713 5364 8156
8714 1380 6326
8715 3637 5829
8716 5792 8675
8717 3040 7996
8718 7274 4517
8719 5051 5614
8720 5580 8986
8721 7847 4955
8722 9226 4518
8723 7339 4892
8724 7445 4599
8725 6017 8755
8726 9401 3164
8727 5797 1515
8728 3173 4434
8729 8173 3686
8730 8052 5053
8731 5774 6857
8732 7872 3715
8733 1197 2187
8734 8413 7176
8735 7555 5014
8736 2335 5134
8737 5704 7968
8738 3519 1648
8739 5276 7369
8740 8286 3446
8741 5698 7959
8742 659  3654
8743 4811 3427
8744 8145 3960
8745 4516 7993
8746 7797 4658
8747 7933 3525
8748 5738 8636
8749 622  1003
8750 657  1317
8751 5561 3088
8752 5131 6481
8753 8312 5011
8754 507  5784
8755 7455 5235
8756 4517 5457
8757 5267 8078
8758 965  3507
8759 5469 6816
8760 7427 7199
8761 1853 2417
8762 6958 8298
8763 2654 623 
8764 8561 4806
8765 5140 5443
8766 5256 5793
8767 8642 9634
8768 6275 6149
8769 4591 6043
8770 3130 9166
8771 5485 7640
8772 6969 5752
8773 3552 9976
8774 7729 4862
8775 5132 7622
8776 4555 6806
8777 3473 2815
8778 59   9130
8779 7541 6257
8780 6562 7621
8781 6608 376 
8782 4829 8756
8783 7756 8389
8784 4709 8398
8785 5319 8223
8786 2877 9965
8787 1807 7315
8788 4730 5561
8789 8663 7429
8790 5618 6309
8791 7107 4021
8792 1342 4860
8793 5276 6906
8794 5476 6914
8795 8556 2070
8796 4586 9449
8797 5736 8175
8798 6888 5881
8799 1736 6594
8800 2821 6795
8801 2836 1973
8802 3602 9339
8803 664  9573
8804 9885 704 
8805 777  9226
8806 8704 5926
8807 146  3389
8808 5922 5143
8809 6700 1323
8810 6292 6021
8811 4429 6379
8812 6402 201 
8813 4714 5482
8814 10   4847
8815 8113 4981
8816 8574 2896
8817 3171 3857
8818 5917 730 
8819 3813 8643
8820 3983 2808
8821 5109 5531
8822 6430 3298
8823 5496 3439
8824 5786 5086
8825 5566 7507
8826 6703 5839
8827 8841 7040
8828 7219 4073
8829 6160 6692
8830 3515 8185
8831 5258 7923
8832 5156 3918
8833 8582 7427
8834 6644 6109
8835 8853 4869
8836 5648 8082
8837 5437 264 
8838 5675 8577
8839 7560 1085
8840 5295 2099
8841 6474 6205
8842 3780 5844
8843 5665 8705
8844 5721 8681
8845 9192 4090
8846 5011 6771
8847 4631 9846
8848 4530 7918
8849 7290 2367
8850 140  1791
8851 4950 8358
8852 4977 6714
8853 3469 8201
8854 4327 7369
8855 6759 1589
8856 7766 4429
8857 3612 6352
8858 6349 6980
8859 5916 7420
8860 9862 2306
8861 3572 9353
8862 8550 4837
8863 4670 4205
8864 7179 209 
8865 9131 5541
8866 7947 5192
8867 3699 3559
8868 5632 8814
8869 942  4978
8870 5311 6704
8871 3083 8643
8872 4444 7362
8873 2990 1306
8874 3179 7768
8875 2370 3419
8876 3258 5714
8877 4567 5252
8878 4782 3717
8879 1805 7075
8880 8248 4860
8881 2259 6554
8882 3236 6276
8883 1064 9577
8884 3917 8094
8885 7684 4319
8886 4874 4790
8887 5317 5474
8888 7813 3697
8889 7676 4554
8890 5160 8374
8891 4971 6371
8892 5686 7848
8893 4353 4925
8894 8512 6824
8895 4924 5912
8896 7167 7019
8897 4855 2501
8898 3252 5656
8899 9523 4679
8900 7359 5648
8901 4518 7328
8902 7052 3743
8903 8766 7082
8904 4657 7469
8905 2278 4346
8906 4905 5990
8907 7943 5533
8908 9969 4452
8909 5533 6736
8910 9061 6473
8911 2748 5343
8912 4360 3245
8913 4746 8460
8914 7500 3588
8915 3181 8573
8916 6754 6725
8917 6279 791 
8918 8599 5054
8919 8633 2992
8920 8049 4477
8921 2117 2542
8922 5940 871 
8923 9549 8167
8924 1957 4374
8925 6649 2485
8926 7945 1651
8927 6872 4352
8928 7125 4306
8929 9896 366 
8930 7219 3954
8931 7231 4967
8932 2995 6673
8933 8736 6290
8934 4737 8082
8935 5391 8039
8936 2366 4517
8937 5637 5659
8938 5595 6088
8939 8883 5866
8940 5041 1563
8941 223  3712
8942 7371 3792
8943 8724 4761
8944 2372 9833
8945 5953 5298
8946 8400 2721
8947 5384 7315
8948 7758 4462
8949 8100 2594
8950 9781 5708
8951 5389 7103
8952 4479 3840
8953 8590 406 
8954 8097 4611
8955 2615 1788
8956 4180 6018
8957 7629 5659
8958 7649 3465
8959 9560 6284
8960 7143 4502
8961 1835 7844
8962 2746 6932
8963 6411 670 
8964 8406 4561
8965 2220 9734
8966 8292 8315
8967 7700 1833
8968 2175 1271
8969 2985 657 
8970 3701 2117
8971 5534 8638
8972 7451 4776
8973 2528 936 
8974 5124 9406
8975 7206 4553
8976 4972 5659
8977 1973 2427
8978 6272 5550
8979 4926 7593
8980 4335 7356
8981 7956 5034
8982 9709 5980
8983 5215 6978
8984 9243 4805
8985 820  1252
8986 5033 5849
8987 9419 4839
8988 9459 2450
8989 6602 8907
8990 545  8570
8991 1754 7040
8992 5895 1446
8993 8371 2746
8994 5211 1703
8995 6012 6900
8996 9525 6891
8997 52   4709
8998 5217 6699
8999 6730 4931
9000 4642 7729
9001 7395 4687
9002 5581 6125
9003 8230 3974
9004 792  7034
9005 7101 384 
9006 6334 7013
9007 3502 8916
9008 4964 5396
9009 4732 5459
9010 3880 7652
9011 5382 9779
9012 6544 7366
9013 3833 7507
9014 4976 6370
9015 4852 6077
9016 5359 6987
9017 6738 8317
9018 8321 9472
9019 6922 6979
9020 972  854 
9021 4134 5391
9022 3317 8663
9023 523  3836
9024 2320 1757
9025 5980 8962
9026 2416 4442
9027 5720 3446
9028 3945 6072
9029 7915 3660
9030 6175 6431
9031 7017 8141
9032 8855 3326
9033 5832 3083
9034 3580 6236
9035 4877 6236
9036 955  3307
9037 1509 2688
9038 5923 9267
9039 5674 7497
9040 5235 6933
9041 3766 4276
9042 7370 7045
9043 3989 5718
9044 6158 2925
9045 6586 7241
9046 5967 4489
9047 5010 5630
9048 4369 7218
9049 1036 6465
9050 4322 277 
9051 7267 2561
9052 5024 1357
9053 5418 5522
9054 6383 8509
9055 7809 2300
9056 4075 5294
9057 6574 5699
9058 6092 7517
9059 4247 8344
9060 7708 3250
9061 7846 5705
9062 9919 3378
9063 4261 1291
9064 4256 5101
9065 3891 940 
9066 8758 4166
9067 6094 9027
9068 5681 6394
9069 5044 6353
9070 5392 4690
9071 9132 4930
9072 4577 8099
9073 5612 1505
9074 8174 6736
9075 9333 3383
9076 1691 4614
9077 5963 5430
9078 8753 2787
9079 6617 4827
9080 3621 5429
9081 4293 2716
9082 6754 7399
9083 7851 4721
9084 4929 7376
9085 8737 4539
9086 3912 8501
9087 9674 5304
9088 5396 7591
9089 5269 7327
9090 5190 5176
9091 4659 7808
9092 937  7013
9093 8338 7605
9094 5803 4591
9095 1909 8594
9096 1572 5054
9097 7473 4367
9098 4016 6220
9099 8892 2724
9100 5559 7722
9101 1336 4017
9102 544  3661
9103 5403 6797
9104 5879 6004
9105 6762 6965
9106 7351 3727
9107 3226 3664
9108 1892 6849
9109 4059 4924
9110 6104 8532
9111 4687 6523
9112 7473 4585
9113 5553 6249
9114 8611 4894
9115 4410 1576
9116 1690 8453
9117 8258 2806
9118 7303 4254
9119 4988 8730
9120 8891 5603
9121 2887 5836
9122 5969 1899
9123 7827 4469
9124 8693 6419
9125 7087 4588
9126 4548 7719
9127 3882 8849
9128 4894 9206
9129 5363 7545
9130 3755 8344
9131 7696 2611
9132 8545 4606
9133 4855 6622
9134 5748 9036
9135 9740 5370
9136 9988 3249
9137 7015 8697
9138 7162 7496
9139 1414 4013
9140 2429 5134
9141 6639 8051
9142 8027 5736
9143 8268 7797
9144 5931 5415
9145 8495 9366
9146 4721 5511
9147 2267 7480
9148 3660 6309
9149 6741 1029
9150 8728 6743
9151 849  2711
9152 7103 8030
9153 611  8465
9154 2151 547 
9155 965  2121
9156 9576 5154
9157 5589 6784
9158 6031 8254
9159 3519 8261
9160 2895 1632
9161 4814 7558
9162 280  9134
9163 3004 5504
9164 2089 8083
9165 445  7485
9166 5529 6737
9167 7683 3373
9168 7114 4198
9169 7175 5325
9170 9369 1792
9171 7590 8322
9172 4773 1237
9173 5983 6883
9174 5557 8352
9175 7442 4859
9176 5828 1804
9177 5380 4310
9178 7010 6702
9179 8305 4658
9180 7913 6637
9181 8991 491 
9182 9147 4481
9183 6182 6899
9184 8055 4682
9185 5471 4900
9186 4739 4215
9187 7928 3323
9188 1211 6770
9189 5920 6606
9190 7241 4823
9191 9343 9974
9192 4006 1943
9193 6031 6631
9194 3886 1141
9195 1129 4370
9196 6737 4208
9197 9281 2200
9198 2637 3063
9199 9202 5942
9200 4194 4797
9201 7936 3887
9202 8910 6183
9203 5627 7884
9204 8994 7383
9205 5789 7649
9206 6994 7555
9207 3205 5478
9208 436  8617
9209 4653 6589
9210 5936 8057
9211 6366 8057
9212 5597 6331
9213 7729 7055
9214 6161 3616
9215 5490 6864
9216 3259 2859
9217 4650 2388
9218 3239 4157
9219 5200 6919
9220 8451 1496
9221 5306 6350
9222 7580 990 
9223 8830 6178
9224 6754 3499
9225 1310 1419
9226 5462 3666
9227 4042 8020
9228 6684 4026
9229 8567 3053
9230 6765 8544
9231 2521 5003
9232 5899 6411
9233 6394 5789
9234 5139 5051
9235 6532 3406
9236 1220 2935
9237 6470 6353
9238 5006 5361
9239 9094 3122
9240 8570 5309
9241 5077 2231
9242 7122 3664
9243 3061 7940
9244 9168 4057
9245 6055 8360
9246 6579 1419
9247 6938 1458
9248 8228 7049
9249 7751 4064
9250 822  621 
9251 7946 178 
9252 4644 7575
9253 2003 4963
9254 7565 840 
9255 5874 7868
9256 6526 2674
9257 6091 9107
9258 1828 742 
9259 215  7881
9260 9674 5045
9261 8649 3806
9262 4920 7585
9263 6557 7355
9264 6688 6838
9265 2272 8891
9266 2080 5152
9267 9078 6703
9268 4084 3584
9269 5804 5848
9270 5701 8878
9271 6017 6376
9272 7852 3709
9273 4428 5308
9274 5160 7034
9275 4148 7278
9276 8024 9673
9277 9347 2840
9278 304  8561
9279 7537 7429
9280 5139 5939
9281 5400 5158
9282 825  1464
9283 9061 6631
9284 8848 2369
9285 1697 6501
9286 5487 7420
9287 5982 5406
9288 1294 5922
9289 5897 6407
9290 7095 9683
9291 4491 6385
9292 7621 4890
9293 6070 5576
9294 5662 8766
9295 6359 5004
9296 5129 9170
9297 7520 4286
9298 8903 1335
9299 1720 4521
9300 7781 3081
9301 4816 4710
9302 8843 5127
9303 6249 4578
9304 2052 5316
9305 2651 1433
9306 4503 7063
9307 6287 6044
9308 1045 6367
9309 6226 5151
9310 8371 5047
9311 6303 4970
9312 3984 8044
9313 5040 7052
9314 4819 767 
9315 9176 1246
9316 4149 3983
9317 7074 6192
9318 5715 6512
9319 5239 7286
9320 6110 1399
9321 9532 5442
9322 5517 6631
9323 9855 3156
9324 6293 8120
9325 1069 4780
9326 4971 3010
9327 6494 4354
9328 5674 7284
9329 7237 8512
9330 7785 5663
9331 5885 8516
9332 5428 8379
9333 9746 9357
9334 5917 7047
9335 6549 7732
9336 5199 6486
9337 9325 4079
9338 3942 5496
9339 4932 6365
9340 5760 8507
9341 9366 962 
9342 8018 2678
9343 1235 3635
9344 7900 4683
9345 4993 7738
9346 444  8873
9347 6516 3262
9348 4934 4926
9349 4644 5136
9350 3160 7438
9351 7707 4439
9352 5246 6223
9353 7131 3628
9354 6762 4185
9355 7840 1520
9356 6799 6109
9357 4932 7766
9358 4124 7867
9359 6235 5928
9360 8183 4571
9361 5712 8775
9362 8731 6945
9363 8514 8575
9364 4883 3514
9365 4860 6396
9366 5771 7479
9367 5552 5947
9368 5174 2674
9369 4600 2306
9370 9024 8004
9371 1907 2317
9372 7791 9230
9373 6133 4467
9374 7993 4740
9375 5541 8939
9376 4980 5589
9377 9092 7729
9378 4518 6681
9379 1908 6729
9380 4503 9696
9381 8433 6075
9382 9443 5764
9383 3093 1255
9384 8756 5782
9385 8703 9586
9386 1829 4491
9387 1811 5008
9388 3959 8138
9389 188  1207
9390 3741 5727
9391 2451 2426
9392 8148 6655
9393 5842 7118
9394 7407 4353
9395 4844 4529
9396 6178 6476
9397 7742 2950
9398 8420 8231
9399 7521 7459
9400 4107 4785
9401 7646 4878
9402 5567 6469
9403 5142 1043
9404 5480 6121
9405 4281 1838
9406 7035 3755
9407 8470 5665
9408 5998 6498
9409 7772 7448
9410 9784 5918
9411 5056 5216
9412 4954 4886
9413 983  9410
9414 8176 5108
9415 5211 7286
9416 9118 2380
9417 4042 3493
9418 7010 4134
9419 7946 3915
9420 9787 4827
9421 6765 3748
9422 2447 2399
9423 9136 8610
9424 5230 7233
9425 3976 7047
9426 5478 7084
9427 8498 4628
9428 4837 4328
9429 7799 4453
9430 2294 4375
9431 7833 152 
9432 7934 4969
9433 5747 6287
9434 5694 5374
9435 5513 6438
9436 8990 4440
9437 7546 4889
9438 3239 6517
9439 6496 9999
9440 6719 210 
9441 5728 6808
9442 2983 472 
9443 1236 2208
9444 5127 6367
9445 5899 6286
9446 9595 7039
9447 835  3153
9448 5747 7478
9449 9111 3998
9450 7703 3985
9451 9454 5907
9452 6743 4086
9453 5807 9056
9454 1440 4240
9455 5920 6341
9456 183  26  
9457 8769 2780
9458 8401 6103
9459 3389 3792
9460 7376 7276
9461 4325 4702
9462 8792 3795
9463 6952 6040
9464 7200 5263
9465 6869 4892
9466 7961 4653
9467 37   7482
9468 9078 5512
9469 4055 1676
9470 5711 7478
9471 4696 5992
9472 9742 7312
9473 8018 4569
9474 4985 7173
9475 5122 5288
9476 7224 9094
9477 5494 6863
9478 5088 6763
9479 9814 9810
9480 7423 3928
9481 4824 6624
9482 6251 6476
9483 7339 5203
9484 6810 3148
9485 8412 5264
9486 8186 3874
9487 4483 7487
9488 712  4722
9489 2866 9618
9490 8961 3370
9491 5453 6931
9492 6119 8628
9493 4780 4602
9494 8310 7695
9495 7625 4700
9496 8334 2726
9497 7786 2862
9498 4602 7662
9499 1607 5057
9500 7069 9118
9501 8717 4111
9502 6071 7003
9503 5419 6131
9504 1868 7267
9505 8517 5790
9506 4854 5940
9507 4641 6124
9508 2473 4591
9509 8077 782 
9510 4825 7295
9511 634  3171
9512 3596 9833
9513 7697 4435
9514 3922 7203
9515 7032 4829
9516 4891 6964
9517 5455 6915
9518 5748 6305
9519 6829 848 
9520 4599 5550
9521 6831 9533
9522 4335 5479
9523 9661 536 
9524 1534 6896
9525 9574 1243
9526 7201 7933
9527 7149 2783
9528 5081 4656
9529 4517 9386
9530 750  9023
9531 5444 7814
9532 1139 8061
9533 5879 6941
9534 7728 9628
9535 5640 8190
9536 1209 3227
9537 8838 7607
9538 7553 5094
9539 2650 3082
9540 2418 8597
9541 6303 8448
9542 7870 8440
9543 7676 4947
9544 6143 3777
9545 5030 6483
9546 7066 4364
9547 9961 4897
9548 4222 6976
9549 8876 4749
9550 7472 4514
9551 2425 2727
9552 9346 7818
9553 7467 7534
9554 8159 4596
9555 6143 4771
9556 5016 267 
9557 4279 3047
9558 6696 6031
9559 5683 6293
9560 137  6029
9561 8967 1359
9562 7625 5686
9563 9046 3600
9564 6417 5887
9565 5357 6779
9566 7544 4259
9567 9244 1895
9568 9441 6111
9569 3202 3997
9570 5803 4554
9571 8762 8174
9572 4819 6640
9573 1181 777 
9574 5731 8980
9575 810  6425
9576 9467 6800
9577 5589 5833
9578 5319 7760
9579 7709 4984
9580 4368 4340
9581 7063 4929
9582 6607 7493
9583 4425 6361
9584 1003 2896
9585 8185 4421
9586 1165 5701
9587 7588 5782
9588 5414 6902
9589 3748 4277
9590 8485 9981
9591 5800 3598
9592 3171 4975
9593 6399 6738
9594 3341 7662
9595 1041 6617
9596 5488 1241
9597 5364 7525
9598 8649 5752
9599 5615 5425
9600 9225 4316
9601 7075 6620
9602 3443 7501
9603 7174 1040
9604 2069 4819
9605 9091 4879
9606 9020 8950
9607 6514 7738
9608 5182 6923
9609 2155 9719
9610 8471 8910
9611 7742 4650
9612 5377 6248
9613 7013 3957
9614 6142 5616
9615 3064 5068
9616 6845 2755
9617 4783 6409
9618 8138 4552
9619 5001 7080
9620 6143 8174
9621 3445 7070
9622 8695 7572
9623 419  9215
9624 5223 4767
9625 6996 3471
9626 4183 8892
9627 6474 7856
9628 5968 6504
9629 6893 4410
9630 13   123 
9631 9097 3677
9632 9028 4195
9633 5985 458 
9634 4508 858 
9635 2824 2864
9636 6455 7864
9637 3866 312 
9638 6312 2851
9639 9620 7862
9640 8410 5256
9641 6507 6357
9642 5510 5612
9643 5825 5598
9644 2972 8627
9645 6107 4097
9646 6734 7039
9647 7619 3894
9648 5973 8192
9649 7050 1639
9650 8163 5101
9651 5538 7144
9652 4767 7858
9653 4622 8792
9654 350  8918
9655 9527 667 
9656 2732 8200
9657 5738 7583
9658 7364 5965
9659 2802 8189
9660 6701 4519
9661 860  4908
9662 5584 8205
9663 7631 4566
9664 7606 3633
9665 5962 7384
9666 5914 7660
9667 595  958 
9668 5896 1102
9669 2425 7005
9670 8293 9247
9671 74   6699
9672 4723 8447
9673 6433 5016
9674 4463 4511
9675 2258 740 
9676 6855 4830
9677 5490 3499
9678 5643 7440
9679 133  8772
9680 7146 3870
9681 8478 5231
9682 5489 7369
9683 3907 4012
9684 6020 9001
9685 5347 4946
9686 4554 7355
9687 8420 7734
9688 7871 4800
9689 1352 2148
9690 9053 4628
9691 7186 4046
9692 7505 6708
9693 6154 8850
9694 3910 7806
9695 315  3851
9696 4000 8202
9697 3576 2593
9698 7405 5726
9699 9370 2278
9700 6422 9091
9701 1208 1682
9702 2405 3600
9703 8150 4396
9704 8289 3536
9705 4012 8154
9706 6410 3919
9707 6287 7147
9708 5470 7612
9709 8269 8039
9710 4251 5585
9711 5764 4643
9712 6627 7015
9713 3946 2761
9714 6131 6163
9715 6172 8298
9716 7963 5465
9717 8270 3399
9718 8422 5695
9719 6807 6324
9720 8786 5045
9721 7961 7976
9722 7965 5668
9723 6898 2336
9724 6295 7717
9725 5450 5938
9726 4562 7079
9727 1713 9432
9728 4620 3511
9729 8443 3907
9730 1791 5426
9731 9117 4232
9732 7819 2632
9733 7471 7008
9734 1379 5589
9735 9280 4561
9736 5595 6765
9737 6363 4682
9738 4957 5059
9739 5633 8391
9740 7981 3508
9741 5936 7576
9742 3955 8607
9743 6239 75  
9744 4612 8604
9745 9218 9554
9746 8849 3673
9747 4063 3444
9748 6025 6299
9749 5234 6744
9750 8767 6000
9751 3084 9957
9752 6643 7916
9753 5756 4686
9754 4337 7321
9755 7513 4654
9756 4353 1213
9757 3277 4557
9758 5831 5633
9759 3417 18  
9760 4072 7102
9761 3375 9704
9762 4477 7578
9763 4792 7348
9764 2506 6374
9765 3541 1982
9766 3458 8355
9767 4943 999 
9768 5657 5089
9769 4676 7394
9770 717  2465
9771 4525 5847
9772 6165 9472
9773 4695 7403
9774 9060 4497
9775 1027 6824
9776 7087 4136
9777 8250 4871
9778 5639 6859
9779 7691 3975
9780 5586 6880
9781 6473 6440
9782 5646 813 
9783 5926 7765
9784 4074 6159
9785 1183 4310
9786 2116 5238
9787 6467 9478
9788 957  25  
9789 1298 2315
9790 8711 5044
9791 8649 8885
9792 7494 4159
9793 5702 8280
9794 2464 5129
9795 5491 4823
9796 1028 6815
9797 7017 6552
9798 2374 3271
9799 831  4371
9800 3625 3222
9801 5922 9166
9802 5321 6310
9803 5201 5807
9804 7331 6296
9805 3320 6398
9806 4801 6421
9807 7939 4406
9808 5358 6398
9809 6456 7857
9810 3128 5712
9811 1374 1634
9812 2698 7443
9813 51   7970
9814 1657 9339
9815 5319 528 
9816 6457 5691
9817 8893 7194
9818 8017 7439
9819 3306 5215
9820 9903 6235
9821 8008 4407
9822 5583 7459
9823 4721 8897
9824 7992 4875
9825 4936 8464
9826 7804 2340
9827 8054 4408
9828 7906 9471
9829 4099 6743
9830 8345 3666
9831 3720 8170
9832 7279 2282
9833 7755 5376
9834 7647 6843
9835 5115 5770
9836 5470 6160
9837 5762 7673
9838 3574 8447
9839 7666 576 
9840 5031 7171
9841 7333 3871
9842 6426 5230
9843 5799 6767
9844 686  2308
9845 6248 5715
9846 2271 5237
9847 7791 9584
9848 5947 7497
9849 9660 6872
9850 1583 1164
9851 6386 4525
9852 3881 5979
9853 829  4246
9854 296  1936
9855 7232 7522
9856 9154 8401
9857 7134 4730
9858 4415 2906
9859 7872 2494
9860 5548 6634
9861 2765 4705
9862 4807 6926
9863 4950 7227
9864 4926 6205
9865 3283 2021
9866 3132 7055
9867 7087 4285
9868 4271 9661
9869 7253 8869
9870 7772 5423
9871 6489 5825
9872 4177 4374
9873 1506 359 
9874 1151 7090
9875 6092 6656
9876 8230 5963
9877 8827 2668
9878 5138 7451
9879 5415 4633
9880 3118 428 
9881 7441 8021
9882 9499 6825
9883 5982 6919
9884 3689 3033
9885 7679 5386
9886 5686 7188
9887 6487 3900
9888 5435 6831
9889 5755 9318
9890 5583 5412
9891 4021 583 
9892 9854 4073
9893 9098 4141
9894 2330 3388
9895 5164 8005
9896 1089 5478
9897 5162 6529
9898 2076 7358
9899 6896 5599
9900 332  6496
9901 5979 7622
9902 3072 5346
9903 4481 6261
9904 8834 1628
9905 2765 4366
9906 943  9162
9907 4868 3290
9908 5838 5825
9909 379  7272
9910 5757 7406
9911 1027 2767
9912 7857 4937
9913 6411 9663
9914 662  3674
9915 8570 4163
9916 937  3273
9917 3073 8836
9918 5467 7210
9919 9880 1249
9920 8232 3727
9921 9236 4525
9922 8079 3543
9923 8784 4191
9924 4071 6924
9925 1688 5293
9926 6092 7933
9927 5230 7618
9928 5414 7292
9929 7731 2331
9930 3746 8033
9931 6967 5513
9932 353  4178
9933 7683 6812
9934 7828 4911
9935 7896 949 
9936 5462 5376
9937 4655 6636
9938 7629 4225
9939 6751 3463
9940 4451 2090
9941 859  5004
9942 8418 8001
9943 4613 1976
9944 5873 5332
9945 2858 2780
9946 7478 4808
9947 490  2106
9948 5279 6009
9949 4763 8956
9950 1268 9744
9951 6890 6239
9952 4258 9350
9953 7916 1248
9954 6834 3714
9955 6570 141 
9956 462  3128
9957 6297 5863
9958 2695 9401
9959 7580 5288
9960 5550 5952
9961 3258 70  
9962 1299 3380
9963 568  2858
9964 7025 5714
9965 7331 4407
9966 5605 3885
9967 6399 8122
9968 3125 6787
9969 7212 5029
9970 5004 7378
9971 5371 3443
9972 6814 5906
9973 6400 738 
9974 1316 2272
9975 5210 7546
9976 5035 7528
9977 8144 5275
9978 3122 1182
9979 3100 1286
9980 3394 8452
9981 835  3543
9982 8422 5310
9983 7650 7362
9984 1314 8312
9985 4677 8162
9986 9970 6391
9987 174  4106
9988 4170 6193
9989 8943 3417
9990 6335 4297
9991 5073 5660
9992 8189 1151
9993 2063 8255
9994 504  8602
9995 2966 6533
9996 7456 7807
9997 5526 6827
9998 6108 2215
9999 3970 8046
10000 6564 6795
10001 4737 6911
DEMAND_SECTION
1    0   
2    6   
3    10  
4    9   
5    6   
6    5   
7    1   
8    3   
9    7   
10   3   
11   9   
12   3   
13   9   
14   6   
15   9   
16   7   
17   9   
18   5   
19   7   
20   8   
21   9   
22   10  
23   6   
24   9   
25   10  
26   5   
27   10  
28   10  
29   9   
30   3   
31   4   
32   1   
33   3   
34   1   
35   3   
36   7   
37   6   
38   9   
39   7   
40   7   
41   3   
42   8   
43   9   
44   6   
45   9   
46   8   
47   7   
48   7   
49   4   
50   6   
51   1   
52   8   
53   6   
54   6   
55   8   
56   10  
57   2   
58   6   
59   7   
60   2   
61   9   
62   1   
63   5   
64   1   
65   6   
66   7   
67   2   
68   9   
69   4   
70   3   
71   9   
72   3   
73   1   
74   8   
75   10  
76   6   
77   3   
78   8   
79   1   
80   2   
81   6   
82   4   
83   2   
84   3   
85   5   
86   1   
87   2   
88   2   
89   7   
90   5   
91   6   
92   10  
93   3   
94   8   
95   5   
96   8   
97   4   
98   3   
99   2   
100  3   
101  9   
102  5   
103  4   
104  7   
105  8   
106  10  
107  10  
108  10  
109  9   
110  7   
111  6   
112  7   
113  2   
114  7   
115  5   
116  1   
117  5   
118  10  
119  1   
120  9   
121  5   
122  10  
123  9   
124  5   
125  2   
126  6   
127  4   
128  3   
129  8   
130  1   
131  6   
132  8   
133  7   
134  3   
135  4   
136  8   
137  1   
138  9   
139  5   
140  8   
141  5   
142  10  
143  1   
144  4   
145  4   
146  7   
147  9   
148  6   
149  1   
150  1   
151  7   
152  10  
153  3   
154  3   
155  3   
156  7   
157  4   
158  8   
159  3   
160  8   
161  8   
162  3   
163  3   
164  8   
165  1   
166  4   
167  8   
168  1   
169  2   
170  6   
171  5   
172  9   
173  8   
174  10  
175  7   
176  10  
177  3   
178  9   
179  10  
180  9   
181  4   
182  1   
183  9   
184  5   
185  6   
186  8   
187  8   
188  5   
189  2   
190  8   
191  5   
192  3   
193  10  
194  5   
195  2   
196  4   
197  7   
198  4   
199  5   
200  7   
201  1   
202  1   
203  9   
204  6   
205  2   
206  9   
207  2   
208  1   
209  5   
210  6   
211  6   
212  4   
213  7   
214  3   
215  8   
216  7   
217  7   
218  6   
219  7   
220  2   
221  6   
222  4   
223  7   
224  4   
225  5   
226  6   
227  1   
228  4   
229  6   
230  10  
231  4   
232  7   
233  2   
234  10  
235  2   
236  3   
237  6   
238  7   
239  1   
240  10  
241  5   
242  7   
243  5   
244  7   
245  9   
246  1   
247  3   
248  4   
249  4   
250  7   
251  6   
252  9   
253  4   
254  3   
255  8   
256  4   
257  5   
258  9   
259  8   
260  9   
261  6   
262  5   
263  10  
264  2   
265  7   
266  4   
267  5   
268  8   
269  5   
270  7   
271  5   
272  8   
273  8   
274  10  
275  4   
276  8   
277  1   
278  8   
279  2   
280  8   
281  10  
282  4   
283  4   
284  2   
285  2   
286  6   
287  5   
288  2   
289  9   
290  4   
291  9   
292  6   
293  4   
294  4   
295  6   
296  6   
297  5   
298  6   
299  10  
300  6   
301  4   
302  3   
303  9   
304  8   
305  3   
306  10  
307  7   
308  2   
309  5   
310  10  
311  3   
312  3   
313  1   
314  5   
315  1   
316  3   
317  9   
318  6   
319  5   
320  2   
321  4   
322  3   
323  3   
324  4   
325  9   
326  4   
327  10  
328  8   
329  6   
330  4   
331  6   
332  6   
333  8   
334  3   
335  6   
336  7   
337  6   
338  9   
339  6   
340  3   
341  7   
342  10  
343  1   
344  7   
345  7   
346  10  
347  1   
348  10  
349  9   
350  8   
351  7   
352  3   
353  6   
354  8   
355  4   
356  1   
357  7   
358  1   
359  3   
360  9   
361  5   
362  6   
363  2   
364  7   
365  2   
366  8   
367  6   
368  8   
369  8   
370  2   
371  2   
372  5   
373  5   
374  9   
375  4   
376  7   
377  3   
378  2   
379  2   
380  1   
381  4   
382  2   
383  5   
384  5   
385  1   
386  6   
387  4   
388  9   
389  3   
390  9   
391  3   
392  2   
393  7   
394  1   
395  10  
396  9   
397  5   
398  4   
399  10  
400  10  
401  10  
402  8   
403  8   
404  5   
405  3   
406  9   
407  1   
408  7   
409  10  
410  4   
411  4   
412  2   
413  8   
414  1   
415  5   
416  7   
417  2   
418  8   
419  7   
420  6   
421  8   
422  5   
423  9   
424  3   
425  3   
426  4   
427  9   
428  6   
429  2   
430  7   
431  9   
432  9   
433  9   
434  6   
435  4   
436  1   
437  3   
438  9   
439  3   
440  6   
441  8   
442  2   
443  4   
444  7   
445  2   
446  1   
447  10  
448  7   
449  4   
450  8   
451  8   
452  7   
453  8   
454  7   
455  7   
456  10  
457  1   
458  10  
459  6   
460  2   
461  3   
462  1   
463  6   
464  4   
465  7   
466  10  
467  9   
468  10  
469  6   
470  3   
471  2   
472  10  
473  1   
474  1   
475  10  
476  7   
477  6   
478  9   
479  2   
480  6   
481  10  
482  10  
483  5   
484  4   
485  4   
486  6   
487  10  
488  7   
489  8   
490  3   
491  9   
492  4   
493  8   
494  5   
495  1   
496  4   
497  10  
498  10  
499  5   
500  9   
501  6   
502  2   
503  2   
504  7   
505  4   
506  2   
507  10  
508  9   
509  9   
510  8   
511  10  
512  9   
513  4   
514  9   
515  4   
516  1   
517  6   
518  10  
519  2   
520  7   
521  2   
522  6   
523  4   
524  1   
525  10  
526  5   
527  10  
528  9   
529  10  
530  3   
531  5   
532  10  
533  1   
534  4   
535  10  
536  4   
537  9   
538  3   
539  5   
540  2   
541  5   
542  1   
543  7   
544  5   
545  7   
546  4   
547  6   
548  3   
549  1   
550  4   
551  9   
552  10  
553  6   
554  2   
555  9   
556  1   
557  7   
558  5   
559  6   
560  3   
561  1   
562  4   
563  4   
564  6   
565  5   
566  8   
567  10  
568  5   
569  7   
570  6   
571  6   
572  4   
573  5   
574  1   
575  3   
576  1   
577  8   
578  4   
579  4   
580  4   
581  2   
582  7   
583  2   
584  5   
585  8   
586  10  
587  1   
588  5   
589  2   
590  2   
591  6   
592  1   
593  8   
594  4   
595  1   
596  7   
597  9   
598  4   
599  2   
600  5   
601  6   
602  1   
603  1   
604  5   
605  4   
606  8   
607  9   
608  1   
609  2   
610  10  
611  6   
612  2   
613  5   
614  7   
615  10  
616  5   
617  7   
618  6   
619  4   
620  5   
621  5   
622  4   
623  3   
624  4   
625  4   
626  4   
627  6   
628  3   
629  2   
630  2   
631  3   
632  10  
633  10  
634  3   
635  6   
636  9   
637  1   
638  4   
639  3   
640  9   
641  8   
642  7   
643  5   
644  4   
645  2   
646  1   
647  7   
648  10  
649  8   
650  8   
651  1   
652  3   
653  9   
654  3   
655  7   
656  6   
657  8   
658  10  
659  9   
660  4   
661  5   
662  8   
663  3   
664  10  
665  2   
666  7   
667  2   
668  1   
669  5   
670  7   
671  3   
672  7   
673  2   
674  7   
675  4   
676  4   
677  4   
678  10  
679  10  
680  6   
681  8   
682  7   
683  10  
684  9   
685  1   
686  2   
687  10  
688  7   
689  10  
690  10  
691  6   
692  8   
693  9   
694  5   
695  10  
696  9   
697  8   
698  9   
699  4   
700  3   
701  3   
702  6   
703  4   
704  9   
705  5   
706  4   
707  2   
708  6   
709  3   
710  3   
711  7   
712  10  
713  7   
714  4   
715  1   
716  6   
717  1   
718  6   
719  8   
720  8   
721  6   
722  10  
723  4   
724  1   
725  4   
726  3   
727  3   
728  6   
729  9   
730  5   
731  4   
732  1   
733  9   
734  6   
735  10  
736  3   
737  6   
738  3   
739  4   
740  10  
741  1   
742  6   
743  6   
744  1   
745  4   
746  8   
747  6   
748  5   
749  2   
750  8   
751  2   
752  2   
753  6   
754  4   
755  6   
756  3   
757  9   
758  5   
759  6   
760  4   
761  5   
762  2   
763  6   
764  6   
765  10  
766  8   
767  4   
768  9   
769  8   
770  1   
771  4   
772  8   
773  4   
774  8   
775  1   
776  9   
777  3   
778  5   
779  8   
780  2   
781  4   
782  9   
783  10  
784  3   
785  8   
786  8   
787  10  
788  3   
789  9   
790  2   
791  8   
792  8   
793  1   
794  5   
795  8   
796  9   
797  1   
798  8   
799  7   
800  6   
801  8   
802  2   
803  5   
804  9   
805  4   
806  5   
807  6   
808  6   
809  9   
810  6   
811  8   
812  4   
813  3   
814  9   
815  7   
816  10  
817  4   
818  4   
819  2   
820  8   
821  7   
822  3   
823  5   
824  8   
825  8   
826  9   
827  6   
828  8   
829  5   
830  8   
831  5   
832  1   
833  3   
834  1   
835  5   
836  8   
837  1   
838  3   
839  7   
840  4   
841  6   
842  6   
843  9   
844  9   
845  8   
846  4   
847  6   
848  4   
849  10  
850  8   
851  6   
852  10  
853  4   
854  3   
855  4   
856  1   
857  10  
858  1   
859  9   
860  3   
861  9   
862  2   
863  7   
864  1   
865  10  
866  10  
867  7   
868  10  
869  10  
870  10  
871  6   
872  3   
873  2   
874  5   
875  8   
876  7   
877  7   
878  3   
879  9   
880  4   
881  7   
882  3   
883  4   
884  9   
885  9   
886  3   
887  10  
888  1   
889  1   
890  2   
891  6   
892  6   
893  8   
894  6   
895  9   
896  2   
897  4   
898  5   
899  8   
900  5   
901  3   
902  10  
903  8   
904  9   
905  2   
906  6   
907  7   
908  9   
909  8   
910  6   
911  4   
912  4   
913  2   
914  3   
915  6   
916  2   
917  6   
918  1   
919  7   
920  1   
921  1   
922  8   
923  7   
924  1   
925  9   
926  3   
927  6   
928  4   
929  5   
930  7   
931  10  
932  6   
933  3   
934  7   
935  4   
936  5   
937  2   
938  7   
939  10  
940  9   
941  1   
942  6   
943  3   
944  1   
945  4   
946  7   
947  2   
948  8   
949  6   
950  4   
951  1   
952  5   
953  8   
954  6   
955  4   
956  8   
957  6   
958  8   
959  10  
960  6   
961  10  
962  6   
963  4   
964  7   
965  3   
966  9   
967  3   
968  6   
969  8   
970  8   
971  9   
972  5   
973  10  
974  5   
975  1   
976  5   
977  2   
978  6   
979  1   
980  5   
981  6   
982  8   
983  10  
984  4   
985  6   
986  9   
987  7   
988  1   
989  4   
990  8   
991  3   
992  1   
993  1   
994  7   
995  6   
996  9   
997  5   
998  8   
999  4   
1000 2   
1001 3   
1002 9   
1003 2   
1004 2   
1005 9   
1006 4   
1007 3   
1008 5   
1009 4   
1010 2   
1011 7   
1012 10  
1013 2   
1014 8   
1015 5   
1016 2   
1017 6   
1018 1   
1019 1   
1020 1   
1021 9   
1022 2   
1023 7   
1024 9   
1025 6   
1026 4   
1027 3   
1028 2   
1029 1   
1030 5   
1031 8   
1032 3   
1033 2   
1034 8   
1035 2   
1036 10  
1037 2   
1038 4   
1039 3   
1040 1   
1041 3   
1042 10  
1043 4   
1044 5   
1045 3   
1046 6   
1047 9   
1048 10  
1049 6   
1050 6   
1051 6   
1052 3   
1053 1   
1054 6   
1055 5   
1056 1   
1057 5   
1058 4   
1059 5   
1060 4   
1061 6   
1062 3   
1063 9   
1064 6   
1065 7   
1066 2   
1067 9   
1068 10  
1069 1   
1070 6   
1071 8   
1072 8   
1073 10  
1074 10  
1075 8   
1076 7   
1077 8   
1078 4   
1079 7   
1080 8   
1081 7   
1082 5   
1083 9   
1084 7   
1085 1   
1086 10  
1087 8   
1088 1   
1089 7   
1090 5   
1091 5   
1092 9   
1093 10  
1094 4   
1095 7   
1096 3   
1097 2   
1098 1   
1099 3   
1100 8   
1101 5   
1102 4   
1103 3   
1104 7   
1105 5   
1106 8   
1107 5   
1108 2   
1109 3   
1110 2   
1111 1   
1112 4   
1113 4   
1114 5   
1115 2   
1116 8   
1117 6   
1118 1   
1119 2   
1120 8   
1121 4   
1122 9   
1123 7   
1124 4   
1125 8   
1126 5   
1127 5   
1128 1   
1129 7   
1130 9   
1131 6   
1132 8   
1133 5   
1134 2   
1135 2   
1136 5   
1137 2   
1138 2   
1139 10  
1140 10  
1141 9   
1142 4   
1143 6   
1144 7   
1145 7   
1146 2   
1147 4   
1148 2   
1149 8   
1150 10  
1151 3   
1152 2   
1153 8   
1154 4   
1155 7   
1156 2   
1157 6   
1158 6   
1159 2   
1160 2   
1161 6   
1162 1   
1163 3   
1164 10  
1165 8   
1166 8   
1167 8   
1168 1   
1169 8   
1170 1   
1171 8   
1172 7   
1173 5   
1174 9   
1175 2   
1176 3   
1177 7   
1178 8   
1179 2   
1180 4   
1181 3   
1182 2   
1183 8   
1184 1   
1185 10  
1186 1   
1187 6   
1188 5   
1189 10  
1190 2   
1191 3   
1192 10  
1193 1   
1194 2   
1195 9   
1196 5   
1197 3   
1198 2   
1199 3   
1200 3   
1201 2   
1202 2   
1203 10  
1204 7   
1205 9   
1206 5   
1207 5   
1208 10  
1209 6   
1210 7   
1211 3   
1212 9   
1213 9   
1214 6   
1215 10  
1216 2   
1217 4   
1218 4   
1219 7   
1220 7   
1221 1   
1222 2   
1223 9   
1224 9   
1225 7   
1226 9   
1227 3   
1228 9   
1229 2   
1230 2   
1231 8   
1232 7   
1233 10  
1234 4   
1235 5   
1236 8   
1237 5   
1238 6   
1239 4   
1240 3   
1241 7   
1242 4   
1243 1   
1244 10  
1245 1   
1246 3   
1247 7   
1248 4   
1249 3   
1250 8   
1251 7   
1252 7   
1253 9   
1254 7   
1255 2   
1256 4   
1257 10  
1258 9   
1259 6   
1260 2   
1261 9   
1262 7   
1263 1   
1264 10  
1265 7   
1266 5   
1267 5   
1268 7   
1269 7   
1270 5   
1271 7   
1272 2   
1273 9   
1274 5   
1275 7   
1276 6   
1277 3   
1278 2   
1279 1   
1280 9   
1281 10  
1282 10  
1283 6   
1284 4   
1285 2   
1286 3   
1287 1   
1288 2   
1289 3   
1290 1   
1291 3   
1292 4   
1293 6   
1294 4   
1295 4   
1296 7   
1297 5   
1298 3   
1299 10  
1300 5   
1301 10  
1302 10  
1303 4   
1304 2   
1305 5   
1306 10  
1307 6   
1308 3   
1309 8   
1310 4   
1311 6   
1312 5   
1313 3   
1314 7   
1315 3   
1316 7   
1317 5   
1318 6   
1319 3   
1320 5   
1321 1   
1322 9   
1323 7   
1324 6   
1325 8   
1326 10  
1327 6   
1328 9   
1329 5   
1330 2   
1331 3   
1332 1   
1333 10  
1334 3   
1335 10  
1336 4   
1337 1   
1338 10  
1339 1   
1340 5   
1341 1   
1342 6   
1343 7   
1344 5   
1345 3   
1346 5   
1347 4   
1348 6   
1349 1   
1350 9   
1351 1   
1352 3   
1353 9   
1354 2   
1355 4   
1356 4   
1357 7   
1358 7   
1359 8   
1360 7   
1361 7   
1362 7   
1363 8   
1364 4   
1365 2   
1366 5   
1367 4   
1368 1   
1369 5   
1370 3   
1371 8   
1372 2   
1373 4   
1374 5   
1375 6   
1376 3   
1377 10  
1378 4   
1379 2   
1380 10  
1381 7   
1382 9   
1383 9   
1384 2   
1385 10  
1386 1   
1387 5   
1388 8   
1389 9   
1390 2   
1391 8   
1392 5   
1393 4   
1394 5   
1395 1   
1396 2   
1397 2   
1398 9   
1399 2   
1400 9   
1401 1   
1402 10  
1403 7   
1404 1   
1405 9   
1406 2   
1407 8   
1408 10  
1409 2   
1410 7   
1411 4   
1412 8   
1413 7   
1414 10  
1415 2   
1416 7   
1417 5   
1418 8   
1419 10  
1420 3   
1421 1   
1422 9   
1423 5   
1424 5   
1425 3   
1426 3   
1427 10  
1428 8   
1429 3   
1430 3   
1431 9   
1432 8   
1433 10  
1434 3   
1435 10  
1436 4   
1437 9   
1438 10  
1439 6   
1440 4   
1441 6   
1442 3   
1443 5   
1444 3   
1445 3   
1446 7   
1447 8   
1448 4   
1449 6   
1450 5   
1451 3   
1452 9   
1453 6   
1454 6   
1455 3   
1456 8   
1457 3   
1458 9   
1459 7   
1460 9   
1461 5   
1462 6   
1463 10  
1464 3   
1465 10  
1466 5   
1467 8   
1468 4   
1469 5   
1470 3   
1471 5   
1472 5   
1473 3   
1474 8   
1475 1   
1476 8   
1477 7   
1478 5   
1479 2   
1480 6   
1481 4   
1482 8   
1483 2   
1484 6   
1485 4   
1486 3   
1487 4   
1488 1   
1489 4   
1490 4   
1491 6   
1492 3   
1493 7   
1494 1   
1495 4   
1496 6   
1497 7   
1498 10  
1499 7   
1500 7   
1501 5   
1502 5   
1503 4   
1504 9   
1505 7   
1506 9   
1507 10  
1508 10  
1509 1   
1510 4   
1511 5   
1512 6   
1513 4   
1514 5   
1515 10  
1516 2   
1517 10  
1518 1   
1519 3   
1520 6   
1521 3   
1522 9   
1523 1   
1524 5   
1525 7   
1526 2   
1527 9   
1528 9   
1529 6   
1530 9   
1531 5   
1532 3   
1533 10  
1534 1   
1535 10  
1536 5   
1537 1   
1538 10  
1539 8   
1540 3   
1541 10  
1542 3   
1543 10  
1544 8   
1545 5   
1546 6   
1547 2   
1548 2   
1549 1   
1550 1   
1551 9   
1552 10  
1553 8   
1554 5   
1555 9   
1556 6   
1557 3   
1558 1   
1559 6   
1560 7   
1561 4   
1562 2   
1563 1   
1564 6   
1565 3   
1566 5   
1567 1   
1568 5   
1569 10  
1570 10  
1571 7   
1572 5   
1573 9   
1574 9   
1575 2   
1576 5   
1577 3   
1578 7   
1579 2   
1580 6   
1581 6   
1582 1   
1583 5   
1584 4   
1585 6   
1586 3   
1587 10  
1588 8   
1589 9   
1590 9   
1591 10  
1592 9   
1593 10  
1594 9   
1595 5   
1596 10  
1597 5   
1598 9   
1599 10  
1600 6   
1601 3   
1602 2   
1603 8   
1604 8   
1605 9   
1606 6   
1607 2   
1608 2   
1609 10  
1610 5   
1611 6   
1612 2   
1613 7   
1614 9   
1615 6   
1616 6   
1617 8   
1618 9   
1619 3   
1620 4   
1621 1   
1622 10  
1623 10  
1624 9   
1625 1   
1626 5   
1627 8   
1628 10  
1629 3   
1630 2   
1631 4   
1632 5   
1633 10  
1634 9   
1635 3   
1636 3   
1637 6   
1638 10  
1639 2   
1640 8   
1641 5   
1642 4   
1643 5   
1644 4   
1645 9   
1646 6   
1647 4   
1648 2   
1649 4   
1650 10  
1651 4   
1652 6   
1653 10  
1654 9   
1655 7   
1656 10  
1657 7   
1658 9   
1659 8   
1660 10  
1661 4   
1662 10  
1663 8   
1664 8   
1665 1   
1666 4   
1667 2   
1668 2   
1669 1   
1670 2   
1671 3   
1672 3   
1673 9   
1674 8   
1675 6   
1676 3   
1677 6   
1678 2   
1679 7   
1680 7   
1681 5   
1682 5   
1683 6   
1684 6   
1685 2   
1686 4   
1687 10  
1688 3   
1689 8   
1690 1   
1691 4   
1692 3   
1693 1   
1694 4   
1695 1   
1696 8   
1697 6   
1698 6   
1699 3   
1700 10  
1701 7   
1702 1   
1703 6   
1704 7   
1705 6   
1706 6   
1707 7   
1708 8   
1709 1   
1710 5   
1711 5   
1712 7   
1713 4   
1714 10  
1715 6   
1716 5   
1717 9   
1718 10  
1719 1   
1720 1   
1721 6   
1722 4   
1723 3   
1724 4   
1725 6   
1726 4   
1727 5   
1728 9   
1729 1   
1730 10  
1731 1   
1732 9   
1733 10  
1734 6   
1735 1   
1736 1   
1737 6   
1738 8   
1739 8   
1740 2   
1741 8   
1742 8   
1743 7   
1744 4   
1745 4   
1746 6   
1747 2   
1748 9   
1749 10  
1750 10  
1751 3   
1752 9   
1753 8   
1754 10  
1755 6   
1756 3   
1757 8   
1758 2   
1759 8   
1760 4   
1761 1   
1762 10  
1763 1   
1764 3   
1765 8   
1766 5   
1767 9   
1768 8   
1769 10  
1770 1   
1771 1   
1772 8   
1773 4   
1774 2   
1775 8   
1776 1   
1777 1   
1778 9   
1779 1   
1780 2   
1781 8   
1782 6   
1783 10  
1784 7   
1785 4   
1786 2   
1787 7   
1788 9   
1789 2   
1790 9   
1791 10  
1792 9   
1793 9   
1794 3   
1795 1   
1796 9   
1797 6   
1798 7   
1799 2   
1800 2   
1801 4   
1802 7   
1803 4   
1804 4   
1805 2   
1806 1   
1807 5   
1808 7   
1809 2   
1810 6   
1811 8   
1812 1   
1813 10  
1814 10  
1815 3   
1816 8   
1817 5   
1818 8   
1819 6   
1820 1   
1821 8   
1822 1   
1823 6   
1824 10  
1825 10  
1826 9   
1827 9   
1828 10  
1829 5   
1830 8   
1831 10  
1832 5   
1833 3   
1834 1   
1835 9   
1836 7   
1837 1   
1838 1   
1839 8   
1840 6   
1841 10  
1842 2   
1843 4   
1844 3   
1845 8   
1846 7   
1847 9   
1848 2   
1849 10  
1850 3   
1851 10  
1852 3   
1853 3   
1854 5   
1855 1   
1856 9   
1857 9   
1858 6   
1859 5   
1860 9   
1861 1   
1862 8   
1863 1   
1864 1   
1865 8   
1866 3   
1867 4   
1868 4   
1869 4   
1870 4   
1871 8   
1872 9   
1873 3   
1874 8   
1875 8   
1876 6   
1877 10  
1878 8   
1879 8   
1880 3   
1881 10  
1882 7   
1883 6   
1884 4   
1885 10  
1886 2   
1887 8   
1888 6   
1889 4   
1890 1   
1891 10  
1892 5   
1893 1   
1894 10  
1895 7   
1896 3   
1897 10  
1898 3   
1899 2   
1900 1   
1901 8   
1902 3   
1903 8   
1904 10  
1905 3   
1906 1   
1907 10  
1908 10  
1909 7   
1910 2   
1911 3   
1912 1   
1913 5   
1914 3   
1915 9   
1916 3   
1917 2   
1918 6   
1919 1   
1920 5   
1921 7   
1922 4   
1923 1   
1924 5   
1925 10  
1926 4   
1927 7   
1928 7   
1929 3   
1930 10  
1931 9   
1932 1   
1933 5   
1934 7   
1935 1   
1936 6   
1937 2   
1938 7   
1939 10  
1940 7   
1941 2   
1942 3   
1943 8   
1944 5   
1945 1   
1946 9   
1947 2   
1948 3   
1949 1   
1950 10  
1951 8   
1952 2   
1953 6   
1954 9   
1955 5   
1956 2   
1957 5   
1958 10  
1959 1   
1960 4   
1961 7   
1962 10  
1963 3   
1964 1   
1965 2   
1966 2   
1967 7   
1968 6   
1969 10  
1970 10  
1971 6   
1972 10  
1973 3   
1974 9   
1975 9   
1976 3   
1977 6   
1978 2   
1979 8   
1980 1   
1981 8   
1982 8   
1983 7   
1984 2   
1985 3   
1986 1   
1987 4   
1988 7   
1989 7   
1990 1   
1991 7   
1992 10  
1993 9   
1994 7   
1995 5   
1996 1   
1997 6   
1998 7   
1999 9   
2000 10  
2001 2   
2002 3   
2003 7   
2004 5   
2005 1   
2006 10  
2007 8   
2008 2   
2009 3   
2010 9   
2011 3   
2012 8   
2013 5   
2014 2   
2015 10  
2016 10  
2017 10  
2018 10  
2019 4   
2020 7   
2021 6   
2022 5   
2023 6   
2024 8   
2025 3   
2026 10  
2027 4   
2028 5   
2029 6   
2030 2   
2031 9   
2032 4   
2033 6   
2034 10  
2035 9   
2036 9   
2037 1   
2038 8   
2039 2   
2040 10  
2041 1   
2042 6   
2043 9   
2044 2   
2045 4   
2046 4   
2047 9   
2048 4   
2049 2   
2050 1   
2051 8   
2052 8   
2053 1   
2054 4   
2055 4   
2056 5   
2057 9   
2058 3   
2059 8   
2060 6   
2061 9   
2062 7   
2063 7   
2064 6   
2065 5   
2066 3   
2067 5   
2068 3   
2069 9   
2070 9   
2071 2   
2072 6   
2073 3   
2074 5   
2075 3   
2076 1   
2077 5   
2078 2   
2079 6   
2080 7   
2081 9   
2082 6   
2083 6   
2084 1   
2085 9   
2086 5   
2087 7   
2088 1   
2089 10  
2090 4   
2091 2   
2092 10  
2093 5   
2094 1   
2095 3   
2096 7   
2097 8   
2098 9   
2099 7   
2100 9   
2101 6   
2102 2   
2103 1   
2104 7   
2105 6   
2106 5   
2107 10  
2108 5   
2109 5   
2110 4   
2111 1   
2112 5   
2113 3   
2114 3   
2115 2   
2116 10  
2117 4   
2118 8   
2119 4   
2120 8   
2121 4   
2122 2   
2123 6   
2124 4   
2125 4   
2126 9   
2127 5   
2128 8   
2129 10  
2130 5   
2131 6   
2132 9   
2133 3   
2134 10  
2135 3   
2136 10  
2137 1   
2138 1   
2139 10  
2140 4   
2141 1   
2142 1   
2143 6   
2144 9   
2145 2   
2146 4   
2147 4   
2148 9   
2149 7   
2150 4   
2151 2   
2152 2   
2153 8   
2154 4   
2155 5   
2156 9   
2157 5   
2158 8   
2159 6   
2160 3   
2161 3   
2162 8   
2163 4   
2164 8   
2165 7   
2166 5   
2167 7   
2168 6   
2169 4   
2170 5   
2171 10  
2172 3   
2173 8   
2174 10  
2175 10  
2176 5   
2177 8   
2178 9   
2179 8   
2180 4   
2181 4   
2182 8   
2183 6   
2184 8   
2185 7   
2186 10  
2187 9   
2188 7   
2189 8   
2190 6   
2191 8   
2192 4   
2193 1   
2194 3   
2195 5   
2196 5   
2197 9   
2198 7   
2199 3   
2200 9   
2201 3   
2202 6   
2203 10  
2204 6   
2205 6   
2206 4   
2207 4   
2208 5   
2209 9   
2210 7   
2211 2   
2212 1   
2213 10  
2214 10  
2215 1   
2216 2   
2217 8   
2218 3   
2219 2   
2220 3   
2221 3   
2222 7   
2223 10  
2224 1   
2225 2   
2226 3   
2227 3   
2228 8   
2229 4   
2230 3   
2231 10  
2232 3   
2233 8   
2234 6   
2235 9   
2236 8   
2237 3   
2238 2   
2239 4   
2240 1   
2241 4   
2242 7   
2243 1   
2244 10  
2245 8   
2246 10  
2247 10  
2248 9   
2249 8   
2250 6   
2251 4   
2252 4   
2253 7   
2254 10  
2255 8   
2256 4   
2257 8   
2258 8   
2259 8   
2260 10  
2261 3   
2262 8   
2263 3   
2264 2   
2265 6   
2266 7   
2267 3   
2268 4   
2269 2   
2270 8   
2271 1   
2272 2   
2273 10  
2274 4   
2275 7   
2276 2   
2277 6   
2278 4   
2279 10  
2280 3   
2281 5   
2282 8   
2283 2   
2284 8   
2285 3   
2286 1   
2287 6   
2288 10  
2289 6   
2290 1   
2291 10  
2292 3   
2293 4   
2294 2   
2295 9   
2296 7   
2297 5   
2298 5   
2299 9   
2300 1   
2301 9   
2302 9   
2303 10  
2304 9   
2305 1   
2306 6   
2307 2   
2308 3   
2309 1   
2310 7   
2311 9   
2312 8   
2313 7   
2314 6   
2315 5   
2316 10  
2317 8   
2318 4   
2319 1   
2320 9   
2321 5   
2322 2   
2323 3   
2324 7   
2325 3   
2326 2   
2327 9   
2328 5   
2329 3   
2330 7   
2331 4   
2332 6   
2333 4   
2334 8   
2335 4   
2336 6   
2337 6   
2338 1   
2339 7   
2340 7   
2341 2   
2342 4   
2343 6   
2344 6   
2345 3   
2346 9   
2347 3   
2348 5   
2349 7   
2350 5   
2351 3   
2352 3   
2353 6   
2354 7   
2355 1   
2356 4   
2357 8   
2358 4   
2359 9   
2360 3   
2361 8   
2362 9   
2363 8   
2364 1   
2365 3   
2366 2   
2367 8   
2368 9   
2369 9   
2370 9   
2371 10  
2372 7   
2373 1   
2374 5   
2375 3   
2376 6   
2377 8   
2378 9   
2379 10  
2380 3   
2381 4   
2382 9   
2383 7   
2384 4   
2385 6   
2386 4   
2387 4   
2388 4   
2389 6   
2390 3   
2391 7   
2392 8   
2393 2   
2394 5   
2395 3   
2396 3   
2397 6   
2398 1   
2399 9   
2400 1   
2401 1   
2402 4   
2403 3   
2404 1   
2405 4   
2406 4   
2407 2   
2408 8   
2409 9   
2410 9   
2411 4   
2412 6   
2413 7   
2414 2   
2415 9   
2416 1   
2417 10  
2418 10  
2419 7   
2420 9   
2421 7   
2422 6   
2423 2   
2424 2   
2425 9   
2426 4   
2427 4   
2428 6   
2429 4   
2430 1   
2431 7   
2432 4   
2433 7   
2434 10  
2435 1   
2436 7   
2437 8   
2438 2   
2439 8   
2440 9   
2441 2   
2442 1   
2443 8   
2444 7   
2445 9   
2446 6   
2447 9   
2448 4   
2449 10  
2450 3   
2451 7   
2452 10  
2453 6   
2454 10  
2455 6   
2456 4   
2457 9   
2458 5   
2459 3   
2460 5   
2461 9   
2462 9   
2463 7   
2464 2   
2465 9   
2466 7   
2467 10  
2468 3   
2469 7   
2470 8   
2471 4   
2472 6   
2473 6   
2474 6   
2475 2   
2476 9   
2477 7   
2478 6   
2479 4   
2480 7   
2481 6   
2482 4   
2483 6   
2484 3   
2485 5   
2486 1   
2487 5   
2488 7   
2489 1   
2490 8   
2491 5   
2492 5   
2493 2   
2494 8   
2495 10  
2496 7   
2497 2   
2498 2   
2499 7   
2500 2   
2501 9   
2502 2   
2503 7   
2504 8   
2505 2   
2506 4   
2507 3   
2508 10  
2509 2   
2510 4   
2511 10  
2512 9   
2513 8   
2514 3   
2515 3   
2516 3   
2517 4   
2518 10  
2519 1   
2520 1   
2521 3   
2522 4   
2523 10  
2524 6   
2525 2   
2526 8   
2527 3   
2528 9   
2529 2   
2530 5   
2531 2   
2532 3   
2533 8   
2534 4   
2535 8   
2536 7   
2537 5   
2538 9   
2539 4   
2540 8   
2541 3   
2542 9   
2543 8   
2544 8   
2545 6   
2546 3   
2547 8   
2548 5   
2549 10  
2550 6   
2551 9   
2552 4   
2553 8   
2554 9   
2555 8   
2556 6   
2557 4   
2558 9   
2559 4   
2560 6   
2561 10  
2562 6   
2563 2   
2564 4   
2565 6   
2566 8   
2567 2   
2568 1   
2569 2   
2570 10  
2571 5   
2572 5   
2573 3   
2574 9   
2575 4   
2576 1   
2577 7   
2578 1   
2579 8   
2580 5   
2581 2   
2582 4   
2583 6   
2584 8   
2585 8   
2586 6   
2587 4   
2588 5   
2589 5   
2590 8   
2591 1   
2592 5   
2593 10  
2594 2   
2595 3   
2596 2   
2597 7   
2598 3   
2599 8   
2600 8   
2601 6   
2602 1   
2603 8   
2604 1   
2605 2   
2606 6   
2607 7   
2608 6   
2609 8   
2610 1   
2611 8   
2612 5   
2613 4   
2614 5   
2615 8   
2616 9   
2617 8   
2618 10  
2619 10  
2620 7   
2621 10  
2622 10  
2623 6   
2624 9   
2625 6   
2626 8   
2627 7   
2628 2   
2629 5   
2630 2   
2631 6   
2632 6   
2633 10  
2634 7   
2635 5   
2636 6   
2637 6   
2638 2   
2639 7   
2640 5   
2641 5   
2642 4   
2643 4   
2644 10  
2645 1   
2646 3   
2647 7   
2648 4   
2649 10  
2650 5   
2651 4   
2652 7   
2653 7   
2654 9   
2655 10  
2656 2   
2657 5   
2658 1   
2659 6   
2660 5   
2661 8   
2662 3   
2663 5   
2664 8   
2665 9   
2666 1   
2667 7   
2668 1   
2669 1   
2670 5   
2671 9   
2672 10  
2673 1   
2674 3   
2675 3   
2676 8   
2677 4   
2678 3   
2679 5   
2680 1   
2681 8   
2682 2   
2683 1   
2684 7   
2685 9   
2686 1   
2687 1   
2688 5   
2689 1   
2690 7   
2691 10  
2692 4   
2693 10  
2694 5   
2695 2   
2696 8   
2697 10  
2698 9   
2699 1   
2700 2   
2701 2   
2702 7   
2703 4   
2704 6   
2705 9   
2706 9   
2707 4   
2708 7   
2709 9   
2710 10  
2711 10  
2712 1   
2713 1   
2714 7   
2715 6   
2716 2   
2717 4   
2718 10  
2719 10  
2720 6   
2721 10  
2722 5   
2723 4   
2724 6   
2725 6   
2726 2   
2727 1   
2728 9   
2729 4   
2730 9   
2731 10  
2732 3   
2733 7   
2734 2   
2735 8   
2736 8   
2737 8   
2738 5   
2739 2   
2740 9   
2741 7   
2742 1   
2743 4   
2744 3   
2745 8   
2746 5   
2747 3   
2748 6   
2749 5   
2750 10  
2751 4   
2752 3   
2753 1   
2754 5   
2755 3   
2756 1   
2757 5   
2758 4   
2759 8   
2760 9   
2761 5   
2762 1   
2763 6   
2764 3   
2765 9   
2766 3   
2767 5   
2768 2   
2769 1   
2770 1   
2771 10  
2772 5   
2773 7   
2774 2   
2775 6   
2776 10  
2777 4   
2778 4   
2779 9   
2780 4   
2781 9   
2782 8   
2783 4   
2784 10  
2785 10  
2786 3   
2787 4   
2788 5   
2789 6   
2790 7   
2791 3   
2792 6   
2793 4   
2794 6   
2795 1   
2796 4   
2797 5   
2798 7   
2799 10  
2800 4   
2801 4   
2802 9   
2803 8   
2804 7   
2805 1   
2806 7   
2807 9   
2808 1   
2809 1   
2810 10  
2811 3   
2812 6   
2813 1   
2814 4   
2815 7   
2816 1   
2817 10  
2818 5   
2819 4   
2820 5   
2821 6   
2822 9   
2823 4   
2824 4   
2825 6   
2826 7   
2827 2   
2828 3   
2829 10  
2830 10  
2831 1   
2832 4   
2833 8   
2834 10  
2835 8   
2836 2   
2837 1   
2838 4   
2839 9   
2840 8   
2841 6   
2842 8   
2843 9   
2844 4   
2845 10  
2846 5   
2847 7   
2848 5   
2849 1   
2850 6   
2851 2   
2852 10  
2853 10  
2854 1   
2855 3   
2856 7   
2857 5   
2858 2   
2859 4   
2860 6   
2861 2   
2862 2   
2863 6   
2864 2   
2865 3   
2866 8   
2867 9   
2868 9   
2869 4   
2870 3   
2871 10  
2872 8   
2873 6   
2874 2   
2875 5   
2876 2   
2877 6   
2878 9   
2879 2   
2880 1   
2881 8   
2882 10  
2883 3   
2884 1   
2885 4   
2886 5   
2887 2   
2888 8   
2889 10  
2890 9   
2891 8   
2892 10  
2893 2   
2894 7   
2895 6   
2896 10  
2897 9   
2898 8   
2899 8   
2900 3   
2901 5   
2902 3   
2903 3   
2904 4   
2905 2   
2906 1   
2907 10  
2908 1   
2909 10  
2910 10  
2911 9   
2912 8   
2913 6   
2914 5   
2915 10  
2916 5   
2917 1   
2918 10  
2919 9   
2920 4   
2921 9   
2922 3   
2923 2   
2924 3   
2925 5   
2926 6   
2927 9   
2928 7   
2929 3   
2930 9   
2931 2   
2932 1   
2933 4   
2934 5   
2935 3   
2936 4   
2937 6   
2938 7   
2939 8   
2940 3   
2941 7   
2942 9   
2943 7   
2944 1   
2945 6   
2946 8   
2947 2   
2948 2   
2949 1   
2950 8   
2951 2   
2952 1   
2953 4   
2954 8   
2955 5   
2956 1   
2957 10  
2958 9   
2959 10  
2960 10  
2961 10  
2962 8   
2963 10  
2964 3   
2965 4   
2966 9   
2967 9   
2968 7   
2969 9   
2970 7   
2971 9   
2972 6   
2973 4   
2974 6   
2975 3   
2976 5   
2977 4   
2978 1   
2979 9   
2980 1   
2981 5   
2982 10  
2983 4   
2984 2   
2985 8   
2986 2   
2987 5   
2988 8   
2989 5   
2990 5   
2991 10  
2992 5   
2993 2   
2994 1   
2995 2   
2996 5   
2997 1   
2998 8   
2999 3   
3000 5   
3001 4   
3002 10  
3003 8   
3004 8   
3005 10  
3006 10  
3007 10  
3008 5   
3009 8   
3010 2   
3011 8   
3012 1   
3013 9   
3014 6   
3015 7   
3016 4   
3017 8   
3018 10  
3019 2   
3020 2   
3021 10  
3022 8   
3023 3   
3024 2   
3025 4   
3026 7   
3027 4   
3028 3   
3029 6   
3030 4   
3031 2   
3032 1   
3033 6   
3034 2   
3035 10  
3036 1   
3037 2   
3038 8   
3039 10  
3040 9   
3041 3   
3042 8   
3043 9   
3044 10  
3045 8   
3046 7   
3047 2   
3048 8   
3049 7   
3050 3   
3051 4   
3052 7   
3053 5   
3054 4   
3055 8   
3056 5   
3057 10  
3058 1   
3059 10  
3060 7   
3061 9   
3062 4   
3063 9   
3064 1   
3065 6   
3066 2   
3067 4   
3068 3   
3069 10  
3070 1   
3071 3   
3072 5   
3073 7   
3074 1   
3075 10  
3076 6   
3077 10  
3078 10  
3079 5   
3080 1   
3081 9   
3082 7   
3083 2   
3084 10  
3085 2   
3086 9   
3087 3   
3088 10  
3089 9   
3090 2   
3091 10  
3092 3   
3093 3   
3094 3   
3095 6   
3096 10  
3097 4   
3098 3   
3099 1   
3100 1   
3101 1   
3102 9   
3103 3   
3104 6   
3105 4   
3106 5   
3107 9   
3108 2   
3109 8   
3110 10  
3111 8   
3112 1   
3113 4   
3114 1   
3115 4   
3116 4   
3117 3   
3118 2   
3119 8   
3120 8   
3121 6   
3122 5   
3123 5   
3124 9   
3125 5   
3126 2   
3127 4   
3128 3   
3129 5   
3130 10  
3131 4   
3132 3   
3133 6   
3134 10  
3135 1   
3136 1   
3137 5   
3138 1   
3139 4   
3140 10  
3141 9   
3142 6   
3143 9   
3144 3   
3145 2   
3146 1   
3147 9   
3148 6   
3149 9   
3150 6   
3151 8   
3152 5   
3153 2   
3154 5   
3155 4   
3156 6   
3157 2   
3158 5   
3159 3   
3160 3   
3161 4   
3162 5   
3163 10  
3164 1   
3165 6   
3166 7   
3167 7   
3168 4   
3169 8   
3170 9   
3171 2   
3172 10  
3173 1   
3174 7   
3175 5   
3176 3   
3177 10  
3178 8   
3179 3   
3180 5   
3181 8   
3182 6   
3183 6   
3184 9   
3185 5   
3186 9   
3187 5   
3188 10  
3189 1   
3190 2   
3191 4   
3192 9   
3193 5   
3194 7   
3195 1   
3196 8   
3197 7   
3198 9   
3199 2   
3200 5   
3201 10  
3202 6   
3203 9   
3204 9   
3205 10  
3206 5   
3207 5   
3208 10  
3209 2   
3210 5   
3211 10  
3212 4   
3213 7   
3214 6   
3215 5   
3216 6   
3217 9   
3218 5   
3219 8   
3220 4   
3221 8   
3222 6   
3223 1   
3224 10  
3225 7   
3226 9   
3227 5   
3228 3   
3229 9   
3230 10  
3231 2   
3232 9   
3233 10  
3234 3   
3235 8   
3236 6   
3237 5   
3238 10  
3239 9   
3240 2   
3241 6   
3242 9   
3243 7   
3244 1   
3245 4   
3246 4   
3247 4   
3248 9   
3249 2   
3250 6   
3251 5   
3252 10  
3253 10  
3254 6   
3255 4   
3256 1   
3257 5   
3258 8   
3259 1   
3260 2   
3261 2   
3262 9   
3263 6   
3264 4   
3265 2   
3266 4   
3267 3   
3268 9   
3269 8   
3270 10  
3271 8   
3272 4   
3273 5   
3274 3   
3275 4   
3276 2   
3277 5   
3278 3   
3279 10  
3280 2   
3281 3   
3282 3   
3283 2   
3284 8   
3285 5   
3286 3   
3287 9   
3288 4   
3289 7   
3290 9   
3291 10  
3292 4   
3293 6   
3294 3   
3295 10  
3296 4   
3297 7   
3298 7   
3299 9   
3300 8   
3301 9   
3302 9   
3303 5   
3304 1   
3305 2   
3306 8   
3307 4   
3308 9   
3309 6   
3310 7   
3311 1   
3312 6   
3313 2   
3314 4   
3315 1   
3316 6   
3317 10  
3318 2   
3319 5   
3320 10  
3321 6   
3322 6   
3323 8   
3324 6   
3325 1   
3326 8   
3327 10  
3328 8   
3329 10  
3330 6   
3331 1   
3332 5   
3333 3   
3334 4   
3335 10  
3336 5   
3337 9   
3338 2   
3339 3   
3340 6   
3341 9   
3342 6   
3343 7   
3344 7   
3345 3   
3346 9   
3347 1   
3348 8   
3349 1   
3350 1   
3351 9   
3352 8   
3353 5   
3354 3   
3355 2   
3356 8   
3357 5   
3358 5   
3359 9   
3360 1   
3361 1   
3362 5   
3363 7   
3364 1   
3365 2   
3366 9   
3367 3   
3368 6   
3369 10  
3370 10  
3371 10  
3372 1   
3373 9   
3374 9   
3375 9   
3376 3   
3377 3   
3378 4   
3379 3   
3380 5   
3381 10  
3382 10  
3383 5   
3384 1   
3385 7   
3386 6   
3387 5   
3388 6   
3389 4   
3390 10  
3391 5   
3392 5   
3393 5   
3394 6   
3395 1   
3396 2   
3397 3   
3398 1   
3399 6   
3400 9   
3401 10  
3402 7   
3403 4   
3404 6   
3405 6   
3406 1   
3407 10  
3408 3   
3409 8   
3410 2   
3411 5   
3412 5   
3413 1   
3414 1   
3415 4   
3416 8   
3417 8   
3418 8   
3419 4   
3420 2   
3421 5   
3422 10  
3423 4   
3424 8   
3425 9   
3426 10  
3427 7   
3428 3   
3429 3   
3430 5   
3431 6   
3432 7   
3433 8   
3434 5   
3435 9   
3436 2   
3437 5   
3438 8   
3439 10  
3440 9   
3441 4   
3442 4   
3443 6   
3444 10  
3445 10  
3446 4   
3447 3   
3448 5   
3449 1   
3450 10  
3451 2   
3452 3   
3453 6   
3454 5   
3455 1   
3456 3   
3457 1   
3458 6   
3459 9   
3460 1   
3461 2   
3462 6   
3463 6   
3464 5   
3465 8   
3466 3   
3467 5   
3468 4   
3469 4   
3470 10  
3471 10  
3472 5   
3473 7   
3474 7   
3475 8   
3476 5   
3477 7   
3478 6   
3479 2   
3480 10  
3481 4   
3482 10  
3483 4   
3484 1   
3485 5   
3486 9   
3487 6   
3488 6   
3489 10  
3490 1   
3491 8   
3492 4   
3493 9   
3494 3   
3495 8   
3496 4   
3497 3   
3498 10  
3499 5   
3500 5   
3501 4   
3502 3   
3503 10  
3504 3   
3505 2   
3506 1   
3507 9   
3508 8   
3509 6   
3510 5   
3511 8   
3512 1   
3513 7   
3514 4   
3515 2   
3516 6   
3517 7   
3518 3   
3519 4   
3520 7   
3521 10  
3522 2   
3523 7   
3524 8   
3525 3   
3526 8   
3527 2   
3528 10  
3529 8   
3530 5   
3531 7   
3532 8   
3533 5   
3534 5   
3535 7   
3536 9   
3537 1   
3538 5   
3539 4   
3540 2   
3541 5   
3542 7   
3543 2   
3544 7   
3545 7   
3546 3   
3547 4   
3548 10  
3549 4   
3550 8   
3551 5   
3552 6   
3553 9   
3554 8   
3555 6   
3556 1   
3557 4   
3558 4   
3559 3   
3560 2   
3561 6   
3562 6   
3563 4   
3564 4   
3565 9   
3566 8   
3567 5   
3568 8   
3569 4   
3570 7   
3571 10  
3572 10  
3573 8   
3574 9   
3575 3   
3576 1   
3577 3   
3578 4   
3579 3   
3580 4   
3581 1   
3582 3   
3583 10  
3584 10  
3585 6   
3586 2   
3587 2   
3588 1   
3589 1   
3590 4   
3591 2   
3592 9   
3593 6   
3594 3   
3595 2   
3596 3   
3597 6   
3598 6   
3599 6   
3600 5   
3601 2   
3602 8   
3603 5   
3604 7   
3605 5   
3606 1   
3607 3   
3608 6   
3609 8   
3610 3   
3611 5   
3612 3   
3613 9   
3614 4   
3615 3   
3616 9   
3617 1   
3618 10  
3619 1   
3620 8   
3621 4   
3622 2   
3623 6   
3624 10  
3625 6   
3626 5   
3627 2   
3628 10  
3629 2   
3630 5   
3631 6   
3632 10  
3633 10  
3634 7   
3635 9   
3636 3   
3637 7   
3638 3   
3639 1   
3640 8   
3641 9   
3642 2   
3643 8   
3644 9   
3645 1   
3646 8   
3647 5   
3648 2   
3649 8   
3650 1   
3651 10  
3652 2   
3653 10  
3654 9   
3655 5   
3656 1   
3657 4   
3658 10  
3659 4   
3660 6   
3661 9   
3662 4   
3663 1   
3664 2   
3665 10  
3666 10  
3667 3   
3668 10  
3669 2   
3670 2   
3671 6   
3672 1   
3673 8   
3674 9   
3675 1   
3676 5   
3677 8   
3678 8   
3679 4   
3680 7   
3681 5   
3682 5   
3683 4   
3684 7   
3685 1   
3686 5   
3687 10  
3688 2   
3689 9   
3690 8   
3691 8   
3692 10  
3693 3   
3694 6   
3695 3   
3696 6   
3697 7   
3698 6   
3699 6   
3700 2   
3701 6   
3702 8   
3703 2   
3704 6   
3705 7   
3706 4   
3707 6   
3708 3   
3709 10  
3710 6   
3711 8   
3712 5   
3713 4   
3714 9   
3715 7   
3716 4   
3717 7   
3718 9   
3719 9   
3720 2   
3721 4   
3722 9   
3723 9   
3724 3   
3725 10  
3726 7   
3727 5   
3728 3   
3729 6   
3730 1   
3731 9   
3732 2   
3733 7   
3734 4   
3735 8   
3736 7   
3737 10  
3738 7   
3739 8   
3740 2   
3741 2   
3742 2   
3743 1   
3744 7   
3745 9   
3746 10  
3747 8   
3748 5   
3749 3   
3750 5   
3751 3   
3752 6   
3753 9   
3754 4   
3755 10  
3756 7   
3757 4   
3758 4   
3759 9   
3760 8   
3761 4   
3762 8   
3763 2   
3764 5   
3765 4   
3766 2   
3767 5   
3768 10  
3769 5   
3770 4   
3771 6   
3772 7   
3773 3   
3774 5   
3775 5   
3776 6   
3777 9   
3778 4   
3779 4   
3780 9   
3781 3   
3782 1   
3783 7   
3784 1   
3785 5   
3786 7   
3787 10  
3788 1   
3789 5   
3790 8   
3791 2   
3792 6   
3793 5   
3794 9   
3795 7   
3796 10  
3797 2   
3798 3   
3799 9   
3800 6   
3801 4   
3802 8   
3803 6   
3804 2   
3805 7   
3806 10  
3807 10  
3808 2   
3809 1   
3810 5   
3811 4   
3812 7   
3813 4   
3814 4   
3815 5   
3816 4   
3817 1   
3818 3   
3819 10  
3820 8   
3821 4   
3822 9   
3823 8   
3824 1   
3825 9   
3826 5   
3827 8   
3828 8   
3829 5   
3830 2   
3831 8   
3832 4   
3833 9   
3834 3   
3835 2   
3836 1   
3837 10  
3838 6   
3839 6   
3840 5   
3841 1   
3842 9   
3843 1   
3844 3   
3845 4   
3846 1   
3847 7   
3848 2   
3849 9   
3850 4   
3851 2   
3852 6   
3853 5   
3854 5   
3855 6   
3856 1   
3857 3   
3858 9   
3859 5   
3860 2   
3861 8   
3862 4   
3863 8   
3864 4   
3865 5   
3866 10  
3867 8   
3868 2   
3869 5   
3870 5   
3871 9   
3872 2   
3873 1   
3874 10  
3875 9   
3876 7   
3877 5   
3878 4   
3879 4   
3880 5   
3881 6   
3882 7   
3883 7   
3884 7   
3885 7   
3886 2   
3887 1   
3888 2   
3889 10  
3890 7   
3891 9   
3892 1   
3893 2   
3894 5   
3895 8   
3896 8   
3897 5   
3898 9   
3899 10  
3900 2   
3901 10  
3902 2   
3903 5   
3904 8   
3905 8   
3906 7   
3907 5   
3908 4   
3909 1   
3910 10  
3911 9   
3912 8   
3913 1   
3914 5   
3915 10  
3916 3   
3917 6   
3918 3   
3919 2   
3920 5   
3921 6   
3922 4   
3923 8   
3924 2   
3925 1   
3926 5   
3927 3   
3928 9   
3929 3   
3930 10  
3931 2   
3932 3   
3933 5   
3934 8   
3935 3   
3936 10  
3937 6   
3938 6   
3939 10  
3940 4   
3941 3   
3942 8   
3943 5   
3944 8   
3945 5   
3946 2   
3947 6   
3948 7   
3949 6   
3950 4   
3951 10  
3952 7   
3953 3   
3954 3   
3955 9   
3956 7   
3957 8   
3958 5   
3959 5   
3960 8   
3961 4   
3962 8   
3963 8   
3964 10  
3965 3   
3966 8   
3967 1   
3968 8   
3969 6   
3970 5   
3971 1   
3972 2   
3973 1   
3974 4   
3975 3   
3976 9   
3977 9   
3978 3   
3979 4   
3980 8   
3981 8   
3982 2   
3983 2   
3984 3   
3985 2   
3986 5   
3987 4   
3988 10  
3989 8   
3990 2   
3991 3   
3992 2   
3993 4   
3994 7   
3995 10  
3996 5   
3997 4   
3998 2   
3999 10  
4000 1   
4001 10  
4002 4   
4003 4   
4004 5   
4005 1   
4006 6   
4007 10  
4008 5   
4009 7   
4010 8   
4011 1   
4012 2   
4013 9   
4014 6   
4015 1   
4016 7   
4017 7   
4018 8   
4019 1   
4020 5   
4021 9   
4022 5   
4023 4   
4024 1   
4025 6   
4026 8   
4027 10  
4028 1   
4029 6   
4030 7   
4031 3   
4032 10  
4033 4   
4034 8   
4035 2   
4036 6   
4037 10  
4038 10  
4039 9   
4040 8   
4041 3   
4042 2   
4043 3   
4044 1   
4045 2   
4046 10  
4047 7   
4048 7   
4049 8   
4050 7   
4051 3   
4052 9   
4053 4   
4054 8   
4055 1   
4056 4   
4057 9   
4058 8   
4059 7   
4060 10  
4061 8   
4062 2   
4063 1   
4064 6   
4065 5   
4066 4   
4067 3   
4068 7   
4069 7   
4070 3   
4071 10  
4072 6   
4073 8   
4074 10  
4075 9   
4076 4   
4077 1   
4078 2   
4079 9   
4080 3   
4081 4   
4082 10  
4083 1   
4084 10  
4085 7   
4086 8   
4087 5   
4088 3   
4089 9   
4090 1   
4091 8   
4092 6   
4093 9   
4094 7   
4095 4   
4096 4   
4097 3   
4098 7   
4099 1   
4100 5   
4101 8   
4102 4   
4103 2   
4104 3   
4105 8   
4106 8   
4107 8   
4108 1   
4109 5   
4110 7   
4111 9   
4112 10  
4113 6   
4114 4   
4115 5   
4116 1   
4117 5   
4118 8   
4119 6   
4120 1   
4121 8   
4122 4   
4123 10  
4124 2   
4125 9   
4126 10  
4127 5   
4128 8   
4129 2   
4130 4   
4131 4   
4132 2   
4133 7   
4134 6   
4135 6   
4136 2   
4137 8   
4138 9   
4139 9   
4140 6   
4141 3   
4142 1   
4143 7   
4144 5   
4145 10  
4146 5   
4147 8   
4148 10  
4149 1   
4150 10  
4151 8   
4152 5   
4153 5   
4154 6   
4155 8   
4156 7   
4157 6   
4158 5   
4159 2   
4160 1   
4161 6   
4162 4   
4163 10  
4164 5   
4165 7   
4166 6   
4167 4   
4168 5   
4169 10  
4170 2   
4171 2   
4172 8   
4173 7   
4174 8   
4175 6   
4176 4   
4177 5   
4178 10  
4179 6   
4180 5   
4181 5   
4182 9   
4183 5   
4184 3   
4185 6   
4186 8   
4187 10  
4188 4   
4189 5   
4190 9   
4191 6   
4192 1   
4193 4   
4194 1   
4195 3   
4196 3   
4197 3   
4198 1   
4199 7   
4200 5   
4201 9   
4202 3   
4203 8   
4204 5   
4205 8   
4206 9   
4207 9   
4208 5   
4209 4   
4210 5   
4211 2   
4212 4   
4213 10  
4214 3   
4215 10  
4216 8   
4217 2   
4218 8   
4219 3   
4220 1   
4221 9   
4222 8   
4223 3   
4224 3   
4225 8   
4226 1   
4227 10  
4228 8   
4229 8   
4230 10  
4231 3   
4232 5   
4233 4   
4234 1   
4235 5   
4236 8   
4237 1   
4238 10  
4239 4   
4240 8   
4241 8   
4242 6   
4243 8   
4244 10  
4245 1   
4246 8   
4247 4   
4248 8   
4249 8   
4250 5   
4251 3   
4252 1   
4253 1   
4254 10  
4255 2   
4256 10  
4257 2   
4258 10  
4259 3   
4260 5   
4261 4   
4262 5   
4263 2   
4264 8   
4265 9   
4266 4   
4267 9   
4268 2   
4269 6   
4270 8   
4271 10  
4272 1   
4273 2   
4274 4   
4275 8   
4276 4   
4277 2   
4278 6   
4279 6   
4280 4   
4281 5   
4282 4   
4283 7   
4284 7   
4285 10  
4286 7   
4287 4   
4288 9   
4289 5   
4290 4   
4291 6   
4292 3   
4293 4   
4294 7   
4295 5   
4296 9   
4297 1   
4298 9   
4299 2   
4300 6   
4301 5   
4302 2   
4303 6   
4304 7   
4305 3   
4306 7   
4307 6   
4308 6   
4309 6   
4310 9   
4311 8   
4312 1   
4313 7   
4314 8   
4315 10  
4316 1   
4317 4   
4318 9   
4319 9   
4320 9   
4321 1   
4322 6   
4323 8   
4324 4   
4325 9   
4326 10  
4327 8   
4328 1   
4329 9   
4330 3   
4331 3   
4332 10  
4333 9   
4334 5   
4335 10  
4336 8   
4337 2   
4338 5   
4339 2   
4340 2   
4341 1   
4342 7   
4343 8   
4344 10  
4345 1   
4346 8   
4347 4   
4348 2   
4349 6   
4350 4   
4351 6   
4352 10  
4353 2   
4354 3   
4355 5   
4356 10  
4357 2   
4358 3   
4359 5   
4360 7   
4361 2   
4362 2   
4363 3   
4364 1   
4365 4   
4366 2   
4367 5   
4368 1   
4369 6   
4370 3   
4371 5   
4372 10  
4373 4   
4374 5   
4375 8   
4376 8   
4377 8   
4378 6   
4379 10  
4380 6   
4381 8   
4382 7   
4383 10  
4384 2   
4385 9   
4386 6   
4387 9   
4388 2   
4389 9   
4390 9   
4391 8   
4392 10  
4393 5   
4394 8   
4395 4   
4396 9   
4397 9   
4398 8   
4399 7   
4400 6   
4401 5   
4402 9   
4403 6   
4404 4   
4405 9   
4406 2   
4407 5   
4408 5   
4409 1   
4410 1   
4411 8   
4412 4   
4413 7   
4414 2   
4415 2   
4416 4   
4417 7   
4418 10  
4419 7   
4420 9   
4421 3   
4422 7   
4423 1   
4424 8   
4425 6   
4426 8   
4427 5   
4428 9   
4429 4   
4430 6   
4431 10  
4432 4   
4433 4   
4434 1   
4435 4   
4436 1   
4437 8   
4438 7   
4439 5   
4440 3   
4441 5   
4442 5   
4443 9   
4444 9   
4445 9   
4446 8   
4447 6   
4448 6   
4449 5   
4450 3   
4451 3   
4452 2   
4453 6   
4454 3   
4455 4   
4456 7   
4457 9   
4458 3   
4459 2   
4460 1   
4461 3   
4462 8   
4463 1   
4464 6   
4465 5   
4466 4   
4467 9   
4468 9   
4469 8   
4470 5   
4471 2   
4472 2   
4473 10  
4474 2   
4475 6   
4476 8   
4477 2   
4478 4   
4479 7   
4480 5   
4481 9   
4482 4   
4483 1   
4484 5   
4485 1   
4486 5   
4487 2   
4488 9   
4489 10  
4490 2   
4491 5   
4492 5   
4493 6   
4494 7   
4495 4   
4496 8   
4497 5   
4498 5   
4499 9   
4500 5   
4501 7   
4502 2   
4503 5   
4504 8   
4505 5   
4506 4   
4507 1   
4508 6   
4509 1   
4510 1   
4511 3   
4512 2   
4513 7   
4514 8   
4515 6   
4516 6   
4517 8   
4518 10  
4519 7   
4520 8   
4521 5   
4522 5   
4523 2   
4524 7   
4525 1   
4526 6   
4527 5   
4528 1   
4529 9   
4530 6   
4531 1   
4532 8   
4533 1   
4534 6   
4535 5   
4536 7   
4537 4   
4538 4   
4539 3   
4540 9   
4541 6   
4542 3   
4543 8   
4544 3   
4545 9   
4546 1   
4547 5   
4548 5   
4549 8   
4550 7   
4551 6   
4552 4   
4553 3   
4554 5   
4555 6   
4556 5   
4557 9   
4558 5   
4559 8   
4560 6   
4561 9   
4562 3   
4563 10  
4564 2   
4565 2   
4566 4   
4567 1   
4568 1   
4569 1   
4570 7   
4571 2   
4572 8   
4573 9   
4574 4   
4575 8   
4576 7   
4577 4   
4578 5   
4579 7   
4580 10  
4581 4   
4582 8   
4583 3   
4584 1   
4585 6   
4586 5   
4587 3   
4588 9   
4589 3   
4590 1   
4591 7   
4592 10  
4593 2   
4594 9   
4595 2   
4596 4   
4597 4   
4598 10  
4599 10  
4600 5   
4601 6   
4602 10  
4603 8   
4604 2   
4605 5   
4606 9   
4607 2   
4608 1   
4609 9   
4610 6   
4611 5   
4612 9   
4613 9   
4614 3   
4615 10  
4616 7   
4617 8   
4618 1   
4619 9   
4620 2   
4621 5   
4622 8   
4623 9   
4624 6   
4625 1   
4626 6   
4627 7   
4628 5   
4629 4   
4630 4   
4631 6   
4632 3   
4633 4   
4634 7   
4635 4   
4636 10  
4637 1   
4638 3   
4639 8   
4640 6   
4641 4   
4642 8   
4643 2   
4644 5   
4645 7   
4646 10  
4647 8   
4648 6   
4649 3   
4650 1   
4651 8   
4652 9   
4653 8   
4654 2   
4655 5   
4656 7   
4657 6   
4658 4   
4659 1   
4660 6   
4661 4   
4662 10  
4663 9   
4664 8   
4665 3   
4666 6   
4667 3   
4668 6   
4669 4   
4670 4   
4671 5   
4672 2   
4673 9   
4674 2   
4675 9   
4676 4   
4677 5   
4678 1   
4679 10  
4680 8   
4681 7   
4682 5   
4683 6   
4684 4   
4685 9   
4686 4   
4687 4   
4688 5   
4689 1   
4690 8   
4691 7   
4692 7   
4693 6   
4694 1   
4695 3   
4696 3   
4697 3   
4698 2   
4699 4   
4700 8   
4701 5   
4702 4   
4703 3   
4704 10  
4705 5   
4706 4   
4707 1   
4708 7   
4709 4   
4710 3   
4711 10  
4712 7   
4713 9   
4714 8   
4715 9   
4716 7   
4717 7   
4718 3   
4719 4   
4720 8   
4721 8   
4722 5   
4723 10  
4724 9   
4725 7   
4726 7   
4727 1   
4728 1   
4729 5   
4730 4   
4731 1   
4732 10  
4733 5   
4734 3   
4735 7   
4736 10  
4737 2   
4738 5   
4739 1   
4740 9   
4741 3   
4742 1   
4743 9   
4744 1   
4745 10  
4746 2   
4747 10  
4748 2   
4749 9   
4750 8   
4751 2   
4752 10  
4753 1   
4754 6   
4755 8   
4756 9   
4757 1   
4758 3   
4759 1   
4760 3   
4761 6   
4762 9   
4763 5   
4764 10  
4765 10  
4766 4   
4767 6   
4768 6   
4769 10  
4770 1   
4771 10  
4772 9   
4773 5   
4774 4   
4775 2   
4776 4   
4777 3   
4778 8   
4779 1   
4780 8   
4781 9   
4782 4   
4783 5   
4784 3   
4785 1   
4786 6   
4787 1   
4788 4   
4789 8   
4790 3   
4791 2   
4792 3   
4793 8   
4794 2   
4795 3   
4796 1   
4797 2   
4798 9   
4799 10  
4800 1   
4801 2   
4802 9   
4803 10  
4804 4   
4805 6   
4806 7   
4807 8   
4808 10  
4809 8   
4810 1   
4811 2   
4812 2   
4813 5   
4814 8   
4815 1   
4816 6   
4817 7   
4818 5   
4819 10  
4820 1   
4821 5   
4822 3   
4823 9   
4824 7   
4825 1   
4826 9   
4827 1   
4828 9   
4829 4   
4830 6   
4831 8   
4832 9   
4833 8   
4834 10  
4835 6   
4836 6   
4837 9   
4838 10  
4839 5   
4840 5   
4841 3   
4842 1   
4843 10  
4844 2   
4845 9   
4846 10  
4847 2   
4848 2   
4849 1   
4850 2   
4851 6   
4852 1   
4853 6   
4854 8   
4855 8   
4856 3   
4857 8   
4858 1   
4859 5   
4860 4   
4861 10  
4862 10  
4863 4   
4864 8   
4865 3   
4866 4   
4867 5   
4868 5   
4869 10  
4870 6   
4871 9   
4872 10  
4873 7   
4874 4   
4875 9   
4876 2   
4877 8   
4878 3   
4879 8   
4880 5   
4881 8   
4882 1   
4883 1   
4884 5   
4885 4   
4886 6   
4887 3   
4888 6   
4889 5   
4890 2   
4891 5   
4892 1   
4893 1   
4894 6   
4895 3   
4896 9   
4897 6   
4898 10  
4899 6   
4900 5   
4901 3   
4902 3   
4903 4   
4904 3   
4905 9   
4906 1   
4907 4   
4908 3   
4909 10  
4910 9   
4911 10  
4912 2   
4913 5   
4914 4   
4915 7   
4916 5   
4917 7   
4918 5   
4919 4   
4920 3   
4921 10  
4922 2   
4923 7   
4924 8   
4925 8   
4926 6   
4927 4   
4928 4   
4929 3   
4930 1   
4931 4   
4932 1   
4933 1   
4934 2   
4935 9   
4936 5   
4937 6   
4938 5   
4939 7   
4940 9   
4941 5   
4942 1   
4943 8   
4944 9   
4945 4   
4946 6   
4947 3   
4948 7   
4949 10  
4950 6   
4951 9   
4952 6   
4953 3   
4954 1   
4955 5   
4956 4   
4957 1   
4958 2   
4959 10  
4960 4   
4961 4   
4962 6   
4963 9   
4964 3   
4965 4   
4966 5   
4967 6   
4968 2   
4969 3   
4970 7   
4971 4   
4972 3   
4973 7   
4974 3   
4975 1   
4976 1   
4977 1   
4978 1   
4979 6   
4980 10  
4981 5   
4982 5   
4983 2   
4984 10  
4985 10  
4986 7   
4987 7   
4988 10  
4989 6   
4990 3   
4991 9   
4992 4   
4993 3   
4994 6   
4995 10  
4996 9   
4997 9   
4998 2   
4999 8   
5000 7   
5001 1   
5002 5   
5003 3   
5004 8   
5005 4   
5006 4   
5007 2   
5008 7   
5009 3   
5010 3   
5011 8   
5012 6   
5013 4   
5014 8   
5015 3   
5016 2   
5017 8   
5018 7   
5019 4   
5020 3   
5021 10  
5022 9   
5023 1   
5024 2   
5025 3   
5026 8   
5027 1   
5028 4   
5029 9   
5030 7   
5031 5   
5032 5   
5033 10  
5034 10  
5035 1   
5036 8   
5037 1   
5038 10  
5039 1   
5040 2   
5041 2   
5042 5   
5043 8   
5044 3   
5045 7   
5046 1   
5047 3   
5048 2   
5049 3   
5050 3   
5051 1   
5052 5   
5053 2   
5054 9   
5055 3   
5056 6   
5057 2   
5058 4   
5059 7   
5060 5   
5061 7   
5062 2   
5063 10  
5064 8   
5065 8   
5066 4   
5067 7   
5068 1   
5069 6   
5070 9   
5071 9   
5072 8   
5073 5   
5074 7   
5075 5   
5076 7   
5077 1   
5078 1   
5079 9   
5080 1   
5081 10  
5082 4   
5083 6   
5084 5   
5085 10  
5086 2   
5087 9   
5088 5   
5089 6   
5090 3   
5091 8   
5092 9   
5093 9   
5094 9   
5095 7   
5096 2   
5097 7   
5098 7   
5099 4   
5100 2   
5101 5   
5102 9   
5103 3   
5104 2   
5105 3   
5106 9   
5107 9   
5108 6   
5109 10  
5110 9   
5111 5   
5112 1   
5113 2   
5114 3   
5115 6   
5116 3   
5117 3   
5118 10  
5119 2   
5120 8   
5121 4   
5122 9   
5123 6   
5124 10  
5125 8   
5126 7   
5127 6   
5128 3   
5129 6   
5130 1   
5131 3   
5132 2   
5133 10  
5134 6   
5135 9   
5136 3   
5137 10  
5138 6   
5139 4   
5140 8   
5141 8   
5142 4   
5143 3   
5144 7   
5145 7   
5146 1   
5147 7   
5148 2   
5149 4   
5150 5   
5151 2   
5152 8   
5153 3   
5154 9   
5155 7   
5156 6   
5157 7   
5158 8   
5159 5   
5160 2   
5161 10  
5162 10  
5163 10  
5164 2   
5165 7   
5166 9   
5167 4   
5168 9   
5169 1   
5170 7   
5171 9   
5172 2   
5173 2   
5174 6   
5175 2   
5176 5   
5177 9   
5178 3   
5179 1   
5180 9   
5181 5   
5182 2   
5183 6   
5184 9   
5185 5   
5186 3   
5187 5   
5188 2   
5189 9   
5190 9   
5191 9   
5192 3   
5193 2   
5194 10  
5195 7   
5196 3   
5197 5   
5198 6   
5199 7   
5200 9   
5201 2   
5202 7   
5203 5   
5204 4   
5205 6   
5206 2   
5207 4   
5208 1   
5209 10  
5210 10  
5211 6   
5212 9   
5213 7   
5214 9   
5215 6   
5216 7   
5217 9   
5218 8   
5219 5   
5220 6   
5221 1   
5222 5   
5223 5   
5224 10  
5225 10  
5226 3   
5227 4   
5228 1   
5229 8   
5230 10  
5231 1   
5232 9   
5233 7   
5234 3   
5235 3   
5236 6   
5237 6   
5238 9   
5239 2   
5240 4   
5241 2   
5242 4   
5243 8   
5244 5   
5245 3   
5246 7   
5247 3   
5248 4   
5249 9   
5250 10  
5251 9   
5252 9   
5253 3   
5254 7   
5255 5   
5256 4   
5257 4   
5258 2   
5259 8   
5260 10  
5261 10  
5262 5   
5263 3   
5264 3   
5265 8   
5266 9   
5267 6   
5268 5   
5269 1   
5270 8   
5271 3   
5272 8   
5273 9   
5274 10  
5275 3   
5276 7   
5277 6   
5278 2   
5279 3   
5280 4   
5281 9   
5282 5   
5283 8   
5284 6   
5285 7   
5286 5   
5287 4   
5288 7   
5289 1   
5290 4   
5291 4   
5292 5   
5293 4   
5294 9   
5295 6   
5296 7   
5297 9   
5298 3   
5299 2   
5300 6   
5301 3   
5302 1   
5303 4   
5304 4   
5305 10  
5306 6   
5307 3   
5308 6   
5309 2   
5310 9   
5311 5   
5312 7   
5313 5   
5314 6   
5315 5   
5316 8   
5317 2   
5318 4   
5319 8   
5320 2   
5321 4   
5322 10  
5323 2   
5324 5   
5325 7   
5326 8   
5327 10  
5328 7   
5329 2   
5330 9   
5331 2   
5332 2   
5333 5   
5334 9   
5335 1   
5336 9   
5337 3   
5338 2   
5339 10  
5340 1   
5341 6   
5342 10  
5343 7   
5344 8   
5345 5   
5346 8   
5347 5   
5348 7   
5349 5   
5350 1   
5351 10  
5352 8   
5353 6   
5354 3   
5355 2   
5356 6   
5357 2   
5358 6   
5359 9   
5360 7   
5361 1   
5362 4   
5363 4   
5364 5   
5365 9   
5366 4   
5367 2   
5368 3   
5369 10  
5370 9   
5371 8   
5372 3   
5373 5   
5374 4   
5375 5   
5376 8   
5377 7   
5378 9   
5379 1   
5380 9   
5381 5   
5382 2   
5383 6   
5384 3   
5385 3   
5386 1   
5387 6   
5388 8   
5389 3   
5390 3   
5391 3   
5392 2   
5393 5   
5394 6   
5395 4   
5396 4   
5397 5   
5398 3   
5399 3   
5400 10  
5401 8   
5402 7   
5403 8   
5404 1   
5405 4   
5406 2   
5407 5   
5408 9   
5409 6   
5410 6   
5411 2   
5412 3   
5413 7   
5414 3   
5415 10  
5416 6   
5417 8   
5418 9   
5419 10  
5420 6   
5421 3   
5422 2   
5423 5   
5424 9   
5425 2   
5426 2   
5427 3   
5428 10  
5429 10  
5430 7   
5431 3   
5432 4   
5433 4   
5434 7   
5435 4   
5436 3   
5437 8   
5438 8   
5439 6   
5440 7   
5441 4   
5442 5   
5443 2   
5444 8   
5445 7   
5446 2   
5447 6   
5448 7   
5449 9   
5450 3   
5451 3   
5452 3   
5453 5   
5454 7   
5455 8   
5456 3   
5457 10  
5458 10  
5459 3   
5460 5   
5461 2   
5462 6   
5463 10  
5464 6   
5465 7   
5466 9   
5467 7   
5468 10  
5469 3   
5470 8   
5471 3   
5472 6   
5473 3   
5474 2   
5475 5   
5476 1   
5477 1   
5478 8   
5479 5   
5480 5   
5481 6   
5482 10  
5483 10  
5484 2   
5485 6   
5486 2   
5487 1   
5488 1   
5489 10  
5490 8   
5491 4   
5492 3   
5493 5   
5494 5   
5495 9   
5496 3   
5497 5   
5498 5   
5499 2   
5500 2   
5501 1   
5502 8   
5503 6   
5504 8   
5505 4   
5506 8   
5507 3   
5508 2   
5509 2   
5510 9   
5511 10  
5512 3   
5513 4   
5514 2   
5515 5   
5516 5   
5517 3   
5518 10  
5519 8   
5520 1   
5521 4   
5522 10  
5523 9   
5524 9   
5525 3   
5526 5   
5527 3   
5528 2   
5529 3   
5530 10  
5531 2   
5532 5   
5533 4   
5534 10  
5535 2   
5536 7   
5537 4   
5538 6   
5539 9   
5540 9   
5541 3   
5542 1   
5543 2   
5544 9   
5545 3   
5546 7   
5547 4   
5548 1   
5549 8   
5550 8   
5551 5   
5552 7   
5553 5   
5554 7   
5555 7   
5556 8   
5557 8   
5558 8   
5559 7   
5560 5   
5561 4   
5562 2   
5563 4   
5564 9   
5565 5   
5566 7   
5567 4   
5568 1   
5569 8   
5570 9   
5571 6   
5572 6   
5573 3   
5574 1   
5575 4   
5576 5   
5577 2   
5578 3   
5579 3   
5580 5   
5581 5   
5582 3   
5583 4   
5584 9   
5585 6   
5586 8   
5587 10  
5588 9   
5589 7   
5590 7   
5591 4   
5592 7   
5593 10  
5594 4   
5595 10  
5596 2   
5597 5   
5598 3   
5599 6   
5600 1   
5601 6   
5602 7   
5603 4   
5604 1   
5605 9   
5606 1   
5607 7   
5608 4   
5609 2   
5610 10  
5611 8   
5612 7   
5613 2   
5614 7   
5615 2   
5616 9   
5617 1   
5618 6   
5619 3   
5620 2   
5621 1   
5622 10  
5623 1   
5624 2   
5625 1   
5626 10  
5627 8   
5628 6   
5629 8   
5630 7   
5631 2   
5632 7   
5633 7   
5634 3   
5635 7   
5636 4   
5637 1   
5638 7   
5639 2   
5640 6   
5641 7   
5642 4   
5643 7   
5644 8   
5645 4   
5646 2   
5647 7   
5648 9   
5649 4   
5650 8   
5651 8   
5652 3   
5653 5   
5654 5   
5655 5   
5656 3   
5657 7   
5658 4   
5659 10  
5660 9   
5661 4   
5662 2   
5663 1   
5664 1   
5665 2   
5666 8   
5667 1   
5668 4   
5669 7   
5670 4   
5671 9   
5672 5   
5673 7   
5674 4   
5675 1   
5676 10  
5677 1   
5678 1   
5679 7   
5680 1   
5681 10  
5682 7   
5683 4   
5684 7   
5685 2   
5686 5   
5687 7   
5688 8   
5689 10  
5690 4   
5691 10  
5692 8   
5693 4   
5694 6   
5695 6   
5696 3   
5697 3   
5698 7   
5699 2   
5700 3   
5701 1   
5702 2   
5703 9   
5704 6   
5705 4   
5706 10  
5707 8   
5708 7   
5709 4   
5710 4   
5711 9   
5712 1   
5713 9   
5714 9   
5715 9   
5716 6   
5717 3   
5718 1   
5719 2   
5720 8   
5721 3   
5722 1   
5723 4   
5724 6   
5725 5   
5726 10  
5727 7   
5728 10  
5729 6   
5730 1   
5731 5   
5732 8   
5733 3   
5734 1   
5735 9   
5736 1   
5737 3   
5738 1   
5739 2   
5740 10  
5741 6   
5742 3   
5743 7   
5744 1   
5745 7   
5746 3   
5747 5   
5748 6   
5749 6   
5750 9   
5751 1   
5752 3   
5753 2   
5754 9   
5755 10  
5756 2   
5757 10  
5758 1   
5759 8   
5760 5   
5761 5   
5762 10  
5763 4   
5764 9   
5765 5   
5766 5   
5767 4   
5768 8   
5769 1   
5770 2   
5771 4   
5772 2   
5773 9   
5774 9   
5775 5   
5776 2   
5777 10  
5778 4   
5779 5   
5780 4   
5781 4   
5782 8   
5783 7   
5784 9   
5785 10  
5786 8   
5787 6   
5788 2   
5789 6   
5790 1   
5791 1   
5792 7   
5793 8   
5794 4   
5795 3   
5796 9   
5797 5   
5798 6   
5799 4   
5800 8   
5801 1   
5802 6   
5803 2   
5804 2   
5805 2   
5806 10  
5807 3   
5808 7   
5809 4   
5810 1   
5811 7   
5812 2   
5813 2   
5814 2   
5815 10  
5816 5   
5817 2   
5818 8   
5819 8   
5820 3   
5821 6   
5822 9   
5823 10  
5824 3   
5825 8   
5826 8   
5827 10  
5828 4   
5829 7   
5830 7   
5831 1   
5832 1   
5833 1   
5834 8   
5835 6   
5836 2   
5837 2   
5838 10  
5839 5   
5840 4   
5841 1   
5842 6   
5843 9   
5844 10  
5845 10  
5846 8   
5847 5   
5848 5   
5849 4   
5850 4   
5851 9   
5852 8   
5853 4   
5854 2   
5855 10  
5856 1   
5857 2   
5858 2   
5859 4   
5860 1   
5861 6   
5862 10  
5863 4   
5864 2   
5865 4   
5866 6   
5867 4   
5868 1   
5869 7   
5870 2   
5871 3   
5872 5   
5873 2   
5874 7   
5875 7   
5876 4   
5877 4   
5878 10  
5879 1   
5880 4   
5881 8   
5882 5   
5883 2   
5884 9   
5885 10  
5886 3   
5887 7   
5888 9   
5889 2   
5890 8   
5891 4   
5892 4   
5893 10  
5894 1   
5895 1   
5896 7   
5897 2   
5898 8   
5899 6   
5900 2   
5901 8   
5902 7   
5903 4   
5904 10  
5905 7   
5906 10  
5907 2   
5908 5   
5909 10  
5910 7   
5911 4   
5912 3   
5913 8   
5914 9   
5915 6   
5916 7   
5917 3   
5918 5   
5919 1   
5920 10  
5921 8   
5922 3   
5923 5   
5924 2   
5925 9   
5926 4   
5927 10  
5928 5   
5929 2   
5930 2   
5931 7   
5932 10  
5933 7   
5934 8   
5935 10  
5936 8   
5937 8   
5938 1   
5939 5   
5940 7   
5941 4   
5942 2   
5943 3   
5944 1   
5945 1   
5946 10  
5947 10  
5948 10  
5949 1   
5950 1   
5951 3   
5952 9   
5953 5   
5954 7   
5955 8   
5956 7   
5957 2   
5958 10  
5959 1   
5960 10  
5961 1   
5962 5   
5963 7   
5964 5   
5965 9   
5966 5   
5967 2   
5968 2   
5969 9   
5970 2   
5971 3   
5972 2   
5973 8   
5974 4   
5975 9   
5976 3   
5977 10  
5978 9   
5979 8   
5980 4   
5981 4   
5982 9   
5983 8   
5984 1   
5985 5   
5986 4   
5987 2   
5988 7   
5989 6   
5990 2   
5991 4   
5992 9   
5993 3   
5994 9   
5995 6   
5996 8   
5997 6   
5998 2   
5999 5   
6000 4   
6001 7   
6002 2   
6003 7   
6004 9   
6005 1   
6006 10  
6007 8   
6008 8   
6009 1   
6010 4   
6011 6   
6012 6   
6013 8   
6014 1   
6015 6   
6016 8   
6017 4   
6018 6   
6019 1   
6020 8   
6021 6   
6022 4   
6023 6   
6024 10  
6025 10  
6026 10  
6027 7   
6028 3   
6029 5   
6030 5   
6031 4   
6032 4   
6033 8   
6034 6   
6035 5   
6036 8   
6037 2   
6038 9   
6039 6   
6040 7   
6041 7   
6042 1   
6043 9   
6044 1   
6045 3   
6046 8   
6047 8   
6048 7   
6049 2   
6050 3   
6051 8   
6052 3   
6053 6   
6054 1   
6055 6   
6056 1   
6057 9   
6058 2   
6059 6   
6060 10  
6061 2   
6062 3   
6063 9   
6064 10  
6065 6   
6066 6   
6067 1   
6068 6   
6069 10  
6070 4   
6071 7   
6072 5   
6073 8   
6074 10  
6075 2   
6076 1   
6077 6   
6078 1   
6079 5   
6080 8   
6081 10  
6082 1   
6083 1   
6084 8   
6085 8   
6086 9   
6087 4   
6088 7   
6089 2   
6090 5   
6091 6   
6092 2   
6093 1   
6094 5   
6095 5   
6096 5   
6097 10  
6098 6   
6099 10  
6100 10  
6101 5   
6102 5   
6103 8   
6104 5   
6105 2   
6106 6   
6107 6   
6108 1   
6109 5   
6110 7   
6111 3   
6112 7   
6113 1   
6114 5   
6115 3   
6116 1   
6117 4   
6118 2   
6119 9   
6120 10  
6121 3   
6122 10  
6123 3   
6124 6   
6125 5   
6126 10  
6127 4   
6128 5   
6129 9   
6130 1   
6131 7   
6132 7   
6133 7   
6134 10  
6135 8   
6136 6   
6137 7   
6138 2   
6139 8   
6140 3   
6141 2   
6142 9   
6143 10  
6144 8   
6145 10  
6146 5   
6147 2   
6148 6   
6149 2   
6150 3   
6151 8   
6152 6   
6153 3   
6154 4   
6155 9   
6156 7   
6157 1   
6158 10  
6159 9   
6160 7   
6161 6   
6162 6   
6163 5   
6164 4   
6165 7   
6166 3   
6167 4   
6168 4   
6169 1   
6170 9   
6171 10  
6172 6   
6173 4   
6174 6   
6175 3   
6176 3   
6177 2   
6178 7   
6179 3   
6180 5   
6181 5   
6182 7   
6183 10  
6184 9   
6185 3   
6186 9   
6187 4   
6188 5   
6189 1   
6190 2   
6191 5   
6192 1   
6193 2   
6194 4   
6195 3   
6196 5   
6197 1   
6198 8   
6199 9   
6200 10  
6201 2   
6202 8   
6203 3   
6204 10  
6205 2   
6206 4   
6207 9   
6208 5   
6209 10  
6210 4   
6211 1   
6212 10  
6213 1   
6214 2   
6215 6   
6216 7   
6217 1   
6218 10  
6219 1   
6220 10  
6221 6   
6222 7   
6223 6   
6224 5   
6225 5   
6226 9   
6227 7   
6228 6   
6229 2   
6230 4   
6231 4   
6232 3   
6233 6   
6234 1   
6235 4   
6236 7   
6237 5   
6238 8   
6239 6   
6240 5   
6241 10  
6242 7   
6243 5   
6244 4   
6245 6   
6246 3   
6247 7   
6248 5   
6249 9   
6250 7   
6251 7   
6252 2   
6253 3   
6254 1   
6255 10  
6256 3   
6257 5   
6258 3   
6259 4   
6260 3   
6261 1   
6262 4   
6263 3   
6264 5   
6265 4   
6266 5   
6267 4   
6268 6   
6269 10  
6270 9   
6271 8   
6272 6   
6273 6   
6274 1   
6275 9   
6276 7   
6277 3   
6278 10  
6279 6   
6280 3   
6281 8   
6282 10  
6283 3   
6284 8   
6285 5   
6286 2   
6287 2   
6288 4   
6289 5   
6290 6   
6291 5   
6292 4   
6293 1   
6294 7   
6295 7   
6296 2   
6297 3   
6298 1   
6299 9   
6300 4   
6301 2   
6302 6   
6303 9   
6304 3   
6305 4   
6306 7   
6307 5   
6308 10  
6309 6   
6310 1   
6311 3   
6312 6   
6313 7   
6314 2   
6315 6   
6316 5   
6317 3   
6318 8   
6319 7   
6320 7   
6321 10  
6322 5   
6323 2   
6324 3   
6325 7   
6326 2   
6327 3   
6328 4   
6329 3   
6330 6   
6331 3   
6332 4   
6333 9   
6334 4   
6335 9   
6336 6   
6337 5   
6338 8   
6339 9   
6340 5   
6341 4   
6342 10  
6343 7   
6344 9   
6345 8   
6346 3   
6347 8   
6348 10  
6349 4   
6350 7   
6351 5   
6352 10  
6353 7   
6354 10  
6355 8   
6356 1   
6357 5   
6358 7   
6359 1   
6360 4   
6361 7   
6362 9   
6363 5   
6364 3   
6365 9   
6366 2   
6367 5   
6368 1   
6369 8   
6370 2   
6371 3   
6372 3   
6373 2   
6374 8   
6375 4   
6376 10  
6377 2   
6378 3   
6379 10  
6380 4   
6381 8   
6382 9   
6383 2   
6384 7   
6385 4   
6386 9   
6387 6   
6388 6   
6389 4   
6390 7   
6391 9   
6392 7   
6393 10  
6394 6   
6395 3   
6396 2   
6397 6   
6398 2   
6399 1   
6400 9   
6401 6   
6402 10  
6403 2   
6404 4   
6405 5   
6406 10  
6407 2   
6408 8   
6409 9   
6410 8   
6411 4   
6412 1   
6413 2   
6414 4   
6415 10  
6416 4   
6417 9   
6418 1   
6419 3   
6420 10  
6421 8   
6422 9   
6423 2   
6424 8   
6425 4   
6426 10  
6427 3   
6428 8   
6429 7   
6430 9   
6431 10  
6432 8   
6433 2   
6434 8   
6435 2   
6436 7   
6437 1   
6438 1   
6439 6   
6440 6   
6441 8   
6442 1   
6443 9   
6444 2   
6445 2   
6446 9   
6447 9   
6448 7   
6449 9   
6450 1   
6451 5   
6452 1   
6453 10  
6454 7   
6455 1   
6456 5   
6457 1   
6458 2   
6459 1   
6460 3   
6461 8   
6462 9   
6463 6   
6464 5   
6465 8   
6466 9   
6467 8   
6468 4   
6469 4   
6470 8   
6471 4   
6472 5   
6473 8   
6474 1   
6475 8   
6476 4   
6477 6   
6478 1   
6479 4   
6480 1   
6481 8   
6482 7   
6483 10  
6484 8   
6485 7   
6486 4   
6487 7   
6488 2   
6489 2   
6490 10  
6491 8   
6492 9   
6493 4   
6494 6   
6495 1   
6496 7   
6497 7   
6498 5   
6499 10  
6500 4   
6501 1   
6502 2   
6503 5   
6504 1   
6505 4   
6506 5   
6507 2   
6508 9   
6509 2   
6510 7   
6511 1   
6512 2   
6513 4   
6514 10  
6515 10  
6516 7   
6517 8   
6518 5   
6519 5   
6520 5   
6521 2   
6522 3   
6523 7   
6524 6   
6525 7   
6526 7   
6527 9   
6528 1   
6529 6   
6530 7   
6531 6   
6532 1   
6533 6   
6534 3   
6535 8   
6536 2   
6537 4   
6538 7   
6539 5   
6540 1   
6541 6   
6542 3   
6543 1   
6544 8   
6545 6   
6546 8   
6547 5   
6548 7   
6549 1   
6550 4   
6551 3   
6552 5   
6553 8   
6554 10  
6555 10  
6556 3   
6557 5   
6558 1   
6559 10  
6560 4   
6561 5   
6562 10  
6563 5   
6564 6   
6565 10  
6566 8   
6567 10  
6568 7   
6569 7   
6570 5   
6571 8   
6572 9   
6573 1   
6574 1   
6575 10  
6576 8   
6577 2   
6578 8   
6579 3   
6580 1   
6581 2   
6582 6   
6583 5   
6584 8   
6585 6   
6586 9   
6587 8   
6588 7   
6589 5   
6590 3   
6591 3   
6592 4   
6593 8   
6594 3   
6595 9   
6596 4   
6597 3   
6598 9   
6599 6   
6600 2   
6601 8   
6602 10  
6603 10  
6604 7   
6605 2   
6606 8   
6607 9   
6608 10  
6609 3   
6610 8   
6611 1   
6612 1   
6613 5   
6614 4   
6615 3   
6616 2   
6617 5   
6618 8   
6619 4   
6620 6   
6621 5   
6622 3   
6623 9   
6624 2   
6625 9   
6626 3   
6627 8   
6628 9   
6629 5   
6630 4   
6631 7   
6632 6   
6633 5   
6634 1   
6635 6   
6636 5   
6637 9   
6638 4   
6639 4   
6640 7   
6641 3   
6642 4   
6643 9   
6644 2   
6645 9   
6646 6   
6647 9   
6648 6   
6649 5   
6650 5   
6651 1   
6652 9   
6653 3   
6654 2   
6655 6   
6656 3   
6657 8   
6658 2   
6659 5   
6660 7   
6661 9   
6662 4   
6663 7   
6664 4   
6665 5   
6666 7   
6667 4   
6668 3   
6669 4   
6670 4   
6671 5   
6672 5   
6673 2   
6674 7   
6675 1   
6676 10  
6677 4   
6678 9   
6679 8   
6680 9   
6681 8   
6682 8   
6683 5   
6684 5   
6685 9   
6686 1   
6687 1   
6688 4   
6689 6   
6690 9   
6691 1   
6692 1   
6693 5   
6694 2   
6695 8   
6696 3   
6697 8   
6698 6   
6699 9   
6700 10  
6701 2   
6702 8   
6703 3   
6704 1   
6705 8   
6706 8   
6707 5   
6708 5   
6709 5   
6710 2   
6711 10  
6712 5   
6713 2   
6714 10  
6715 10  
6716 4   
6717 6   
6718 9   
6719 6   
6720 4   
6721 1   
6722 5   
6723 2   
6724 2   
6725 6   
6726 6   
6727 10  
6728 3   
6729 4   
6730 5   
6731 4   
6732 1   
6733 3   
6734 4   
6735 10  
6736 6   
6737 2   
6738 3   
6739 7   
6740 10  
6741 6   
6742 6   
6743 9   
6744 6   
6745 6   
6746 7   
6747 4   
6748 5   
6749 4   
6750 2   
6751 8   
6752 4   
6753 6   
6754 3   
6755 6   
6756 6   
6757 5   
6758 10  
6759 5   
6760 6   
6761 3   
6762 3   
6763 5   
6764 10  
6765 10  
6766 6   
6767 1   
6768 6   
6769 5   
6770 10  
6771 2   
6772 5   
6773 9   
6774 8   
6775 8   
6776 3   
6777 5   
6778 7   
6779 8   
6780 9   
6781 8   
6782 4   
6783 2   
6784 2   
6785 6   
6786 9   
6787 5   
6788 10  
6789 2   
6790 5   
6791 3   
6792 8   
6793 7   
6794 5   
6795 2   
6796 10  
6797 4   
6798 4   
6799 7   
6800 9   
6801 7   
6802 2   
6803 2   
6804 2   
6805 1   
6806 6   
6807 5   
6808 4   
6809 9   
6810 9   
6811 7   
6812 1   
6813 9   
6814 7   
6815 10  
6816 6   
6817 4   
6818 9   
6819 5   
6820 5   
6821 8   
6822 7   
6823 7   
6824 8   
6825 8   
6826 8   
6827 4   
6828 6   
6829 8   
6830 7   
6831 6   
6832 4   
6833 6   
6834 7   
6835 9   
6836 6   
6837 7   
6838 8   
6839 10  
6840 9   
6841 3   
6842 4   
6843 7   
6844 9   
6845 9   
6846 3   
6847 9   
6848 2   
6849 8   
6850 2   
6851 1   
6852 3   
6853 9   
6854 1   
6855 3   
6856 10  
6857 1   
6858 1   
6859 9   
6860 1   
6861 3   
6862 4   
6863 5   
6864 4   
6865 4   
6866 10  
6867 4   
6868 4   
6869 10  
6870 1   
6871 7   
6872 4   
6873 6   
6874 1   
6875 6   
6876 1   
6877 3   
6878 7   
6879 3   
6880 4   
6881 2   
6882 4   
6883 5   
6884 2   
6885 3   
6886 10  
6887 7   
6888 2   
6889 6   
6890 4   
6891 2   
6892 1   
6893 6   
6894 3   
6895 8   
6896 6   
6897 1   
6898 10  
6899 3   
6900 1   
6901 10  
6902 7   
6903 3   
6904 3   
6905 7   
6906 9   
6907 5   
6908 2   
6909 2   
6910 2   
6911 5   
6912 8   
6913 7   
6914 6   
6915 5   
6916 6   
6917 1   
6918 10  
6919 6   
6920 1   
6921 5   
6922 9   
6923 10  
6924 8   
6925 5   
6926 4   
6927 4   
6928 3   
6929 2   
6930 6   
6931 8   
6932 6   
6933 4   
6934 9   
6935 7   
6936 3   
6937 2   
6938 9   
6939 4   
6940 9   
6941 10  
6942 6   
6943 6   
6944 8   
6945 1   
6946 8   
6947 1   
6948 5   
6949 8   
6950 10  
6951 4   
6952 6   
6953 9   
6954 4   
6955 6   
6956 3   
6957 5   
6958 8   
6959 8   
6960 2   
6961 2   
6962 6   
6963 2   
6964 9   
6965 3   
6966 7   
6967 3   
6968 1   
6969 2   
6970 3   
6971 7   
6972 8   
6973 4   
6974 2   
6975 8   
6976 9   
6977 6   
6978 5   
6979 4   
6980 1   
6981 2   
6982 6   
6983 6   
6984 3   
6985 7   
6986 2   
6987 1   
6988 1   
6989 2   
6990 10  
6991 1   
6992 5   
6993 4   
6994 5   
6995 8   
6996 7   
6997 5   
6998 9   
6999 9   
7000 1   
7001 4   
7002 2   
7003 5   
7004 5   
7005 2   
7006 2   
7007 8   
7008 4   
7009 8   
7010 1   
7011 7   
7012 2   
7013 6   
7014 2   
7015 2   
7016 8   
7017 3   
7018 8   
7019 9   
7020 5   
7021 10  
7022 5   
7023 9   
7024 8   
7025 7   
7026 4   
7027 10  
7028 6   
7029 10  
7030 3   
7031 1   
7032 7   
7033 5   
7034 10  
7035 4   
7036 3   
7037 7   
7038 5   
7039 2   
7040 10  
7041 7   
7042 8   
7043 2   
7044 8   
7045 2   
7046 7   
7047 6   
7048 6   
7049 5   
7050 5   
7051 9   
7052 5   
7053 3   
7054 10  
7055 9   
7056 5   
7057 6   
7058 6   
7059 1   
7060 9   
7061 9   
7062 7   
7063 10  
7064 3   
7065 3   
7066 2   
7067 10  
7068 1   
7069 7   
7070 2   
7071 3   
7072 6   
7073 2   
7074 1   
7075 7   
7076 2   
7077 2   
7078 9   
7079 8   
7080 4   
7081 3   
7082 7   
7083 6   
7084 1   
7085 4   
7086 1   
7087 10  
7088 6   
7089 8   
7090 9   
7091 6   
7092 10  
7093 6   
7094 10  
7095 6   
7096 10  
7097 6   
7098 5   
7099 9   
7100 10  
7101 1   
7102 7   
7103 1   
7104 5   
7105 10  
7106 1   
7107 4   
7108 9   
7109 7   
7110 3   
7111 8   
7112 7   
7113 9   
7114 6   
7115 9   
7116 5   
7117 3   
7118 3   
7119 6   
7120 4   
7121 6   
7122 4   
7123 7   
7124 7   
7125 9   
7126 5   
7127 7   
7128 2   
7129 3   
7130 9   
7131 8   
7132 10  
7133 5   
7134 4   
7135 9   
7136 6   
7137 6   
7138 4   
7139 7   
7140 4   
7141 10  
7142 6   
7143 8   
7144 8   
7145 7   
7146 9   
7147 7   
7148 4   
7149 6   
7150 8   
7151 9   
7152 6   
7153 6   
7154 7   
7155 7   
7156 8   
7157 8   
7158 10  
7159 2   
7160 1   
7161 2   
7162 2   
7163 6   
7164 3   
7165 7   
7166 1   
7167 1   
7168 10  
7169 8   
7170 3   
7171 1   
7172 7   
7173 8   
7174 5   
7175 4   
7176 1   
7177 4   
7178 7   
7179 7   
7180 2   
7181 2   
7182 4   
7183 2   
7184 5   
7185 7   
7186 3   
7187 3   
7188 10  
7189 6   
7190 2   
7191 7   
7192 2   
7193 10  
7194 3   
7195 9   
7196 6   
7197 1   
7198 9   
7199 7   
7200 3   
7201 2   
7202 1   
7203 6   
7204 1   
7205 3   
7206 3   
7207 10  
7208 3   
7209 9   
7210 1   
7211 10  
7212 1   
7213 10  
7214 9   
7215 9   
7216 5   
7217 5   
7218 4   
7219 2   
7220 6   
7221 10  
7222 3   
7223 5   
7224 8   
7225 6   
7226 1   
7227 3   
7228 5   
7229 2   
7230 6   
7231 4   
7232 4   
7233 9   
7234 8   
7235 1   
7236 5   
7237 7   
7238 2   
7239 8   
7240 8   
7241 3   
7242 8   
7243 3   
7244 4   
7245 1   
7246 6   
7247 1   
7248 1   
7249 6   
7250 2   
7251 2   
7252 10  
7253 8   
7254 1   
7255 9   
7256 5   
7257 2   
7258 7   
7259 4   
7260 2   
7261 7   
7262 6   
7263 3   
7264 3   
7265 2   
7266 6   
7267 8   
7268 2   
7269 8   
7270 10  
7271 10  
7272 10  
7273 6   
7274 2   
7275 2   
7276 3   
7277 2   
7278 4   
7279 1   
7280 9   
7281 4   
7282 10  
7283 10  
7284 5   
7285 10  
7286 4   
7287 2   
7288 7   
7289 1   
7290 4   
7291 7   
7292 10  
7293 8   
7294 3   
7295 4   
7296 4   
7297 6   
7298 5   
7299 8   
7300 6   
7301 5   
7302 5   
7303 10  
7304 9   
7305 6   
7306 2   
7307 8   
7308 1   
7309 7   
7310 1   
7311 2   
7312 10  
7313 9   
7314 8   
7315 5   
7316 10  
7317 9   
7318 10  
7319 2   
7320 8   
7321 2   
7322 8   
7323 9   
7324 9   
7325 7   
7326 5   
7327 10  
7328 10  
7329 2   
7330 9   
7331 2   
7332 1   
7333 6   
7334 8   
7335 2   
7336 9   
7337 1   
7338 4   
7339 3   
7340 4   
7341 6   
7342 1   
7343 8   
7344 7   
7345 9   
7346 3   
7347 6   
7348 8   
7349 8   
7350 10  
7351 7   
7352 2   
7353 5   
7354 2   
7355 10  
7356 7   
7357 6   
7358 10  
7359 4   
7360 1   
7361 9   
7362 8   
7363 7   
7364 1   
7365 1   
7366 5   
7367 4   
7368 7   
7369 6   
7370 5   
7371 6   
7372 8   
7373 8   
7374 3   
7375 3   
7376 10  
7377 9   
7378 9   
7379 10  
7380 8   
7381 8   
7382 3   
7383 9   
7384 2   
7385 7   
7386 2   
7387 9   
7388 6   
7389 8   
7390 2   
7391 7   
7392 8   
7393 6   
7394 10  
7395 5   
7396 9   
7397 3   
7398 2   
7399 10  
7400 4   
7401 7   
7402 4   
7403 6   
7404 1   
7405 9   
7406 1   
7407 9   
7408 10  
7409 6   
7410 10  
7411 3   
7412 4   
7413 4   
7414 5   
7415 5   
7416 10  
7417 5   
7418 4   
7419 6   
7420 9   
7421 9   
7422 10  
7423 9   
7424 10  
7425 4   
7426 2   
7427 8   
7428 8   
7429 2   
7430 6   
7431 6   
7432 6   
7433 10  
7434 3   
7435 6   
7436 9   
7437 7   
7438 8   
7439 1   
7440 7   
7441 10  
7442 7   
7443 5   
7444 1   
7445 3   
7446 3   
7447 6   
7448 10  
7449 4   
7450 1   
7451 3   
7452 9   
7453 8   
7454 4   
7455 9   
7456 2   
7457 5   
7458 1   
7459 3   
7460 6   
7461 6   
7462 8   
7463 9   
7464 6   
7465 6   
7466 6   
7467 8   
7468 9   
7469 3   
7470 5   
7471 6   
7472 5   
7473 6   
7474 2   
7475 4   
7476 7   
7477 5   
7478 1   
7479 2   
7480 1   
7481 2   
7482 2   
7483 4   
7484 10  
7485 4   
7486 2   
7487 1   
7488 9   
7489 6   
7490 3   
7491 5   
7492 4   
7493 7   
7494 6   
7495 5   
7496 4   
7497 5   
7498 8   
7499 6   
7500 7   
7501 9   
7502 6   
7503 10  
7504 3   
7505 9   
7506 9   
7507 4   
7508 4   
7509 2   
7510 1   
7511 7   
7512 4   
7513 10  
7514 8   
7515 7   
7516 3   
7517 9   
7518 5   
7519 6   
7520 10  
7521 6   
7522 6   
7523 9   
7524 7   
7525 6   
7526 3   
7527 2   
7528 5   
7529 6   
7530 6   
7531 1   
7532 6   
7533 7   
7534 8   
7535 7   
7536 3   
7537 9   
7538 3   
7539 4   
7540 8   
7541 3   
7542 3   
7543 1   
7544 9   
7545 6   
7546 8   
7547 8   
7548 6   
7549 4   
7550 9   
7551 1   
7552 10  
7553 8   
7554 9   
7555 2   
7556 6   
7557 9   
7558 6   
7559 9   
7560 1   
7561 5   
7562 4   
7563 7   
7564 3   
7565 5   
7566 10  
7567 1   
7568 5   
7569 5   
7570 3   
7571 9   
7572 3   
7573 4   
7574 2   
7575 10  
7576 3   
7577 2   
7578 5   
7579 9   
7580 7   
7581 1   
7582 9   
7583 1   
7584 8   
7585 8   
7586 6   
7587 6   
7588 6   
7589 4   
7590 4   
7591 9   
7592 7   
7593 4   
7594 7   
7595 5   
7596 2   
7597 5   
7598 4   
7599 8   
7600 1   
7601 7   
7602 2   
7603 7   
7604 4   
7605 1   
7606 5   
7607 8   
7608 2   
7609 4   
7610 1   
7611 5   
7612 9   
7613 3   
7614 8   
7615 8   
7616 5   
7617 6   
7618 10  
7619 9   
7620 7   
7621 10  
7622 10  
7623 7   
7624 2   
7625 4   
7626 7   
7627 5   
7628 10  
7629 9   
7630 8   
7631 4   
7632 6   
7633 2   
7634 6   
7635 10  
7636 9   
7637 8   
7638 9   
7639 10  
7640 10  
7641 8   
7642 2   
7643 2   
7644 8   
7645 2   
7646 4   
7647 6   
7648 10  
7649 1   
7650 1   
7651 10  
7652 6   
7653 4   
7654 4   
7655 1   
7656 5   
7657 5   
7658 4   
7659 10  
7660 7   
7661 4   
7662 8   
7663 4   
7664 1   
7665 8   
7666 8   
7667 10  
7668 3   
7669 4   
7670 2   
7671 4   
7672 7   
7673 2   
7674 6   
7675 10  
7676 3   
7677 8   
7678 2   
7679 6   
7680 3   
7681 2   
7682 5   
7683 4   
7684 7   
7685 7   
7686 6   
7687 3   
7688 8   
7689 8   
7690 3   
7691 10  
7692 10  
7693 10  
7694 6   
7695 4   
7696 6   
7697 9   
7698 2   
7699 2   
7700 10  
7701 6   
7702 2   
7703 9   
7704 10  
7705 9   
7706 2   
7707 7   
7708 9   
7709 8   
7710 1   
7711 10  
7712 6   
7713 7   
7714 8   
7715 8   
7716 3   
7717 8   
7718 10  
7719 1   
7720 4   
7721 4   
7722 10  
7723 4   
7724 4   
7725 6   
7726 8   
7727 5   
7728 5   
7729 10  
7730 2   
7731 6   
7732 10  
7733 3   
7734 4   
7735 9   
7736 10  
7737 2   
7738 1   
7739 10  
7740 10  
7741 5   
7742 8   
7743 3   
7744 8   
7745 6   
7746 10  
7747 9   
7748 9   
7749 8   
7750 8   
7751 1   
7752 4   
7753 5   
7754 9   
7755 5   
7756 4   
7757 3   
7758 10  
7759 3   
7760 5   
7761 6   
7762 6   
7763 6   
7764 3   
7765 8   
7766 8   
7767 8   
7768 3   
7769 10  
7770 2   
7771 2   
7772 7   
7773 6   
7774 4   
7775 10  
7776 3   
7777 6   
7778 1   
7779 9   
7780 6   
7781 5   
7782 9   
7783 2   
7784 5   
7785 4   
7786 4   
7787 2   
7788 9   
7789 6   
7790 5   
7791 6   
7792 7   
7793 8   
7794 5   
7795 10  
7796 8   
7797 4   
7798 6   
7799 7   
7800 4   
7801 10  
7802 1   
7803 7   
7804 4   
7805 6   
7806 9   
7807 4   
7808 10  
7809 6   
7810 7   
7811 2   
7812 9   
7813 5   
7814 4   
7815 3   
7816 1   
7817 7   
7818 9   
7819 1   
7820 3   
7821 5   
7822 8   
7823 8   
7824 1   
7825 10  
7826 2   
7827 1   
7828 4   
7829 5   
7830 1   
7831 4   
7832 5   
7833 3   
7834 10  
7835 5   
7836 2   
7837 8   
7838 3   
7839 1   
7840 8   
7841 7   
7842 4   
7843 5   
7844 3   
7845 2   
7846 2   
7847 5   
7848 9   
7849 6   
7850 8   
7851 2   
7852 6   
7853 4   
7854 5   
7855 2   
7856 9   
7857 4   
7858 4   
7859 3   
7860 2   
7861 8   
7862 10  
7863 6   
7864 3   
7865 8   
7866 7   
7867 10  
7868 3   
7869 6   
7870 5   
7871 2   
7872 6   
7873 4   
7874 8   
7875 6   
7876 6   
7877 9   
7878 6   
7879 7   
7880 7   
7881 8   
7882 2   
7883 9   
7884 5   
7885 4   
7886 7   
7887 4   
7888 9   
7889 5   
7890 4   
7891 5   
7892 5   
7893 4   
7894 5   
7895 7   
7896 2   
7897 7   
7898 10  
7899 6   
7900 7   
7901 7   
7902 1   
7903 4   
7904 4   
7905 7   
7906 10  
7907 4   
7908 3   
7909 3   
7910 6   
7911 8   
7912 1   
7913 2   
7914 6   
7915 10  
7916 2   
7917 10  
7918 6   
7919 4   
7920 5   
7921 10  
7922 5   
7923 6   
7924 5   
7925 6   
7926 8   
7927 6   
7928 5   
7929 3   
7930 9   
7931 5   
7932 2   
7933 6   
7934 8   
7935 10  
7936 9   
7937 7   
7938 7   
7939 1   
7940 7   
7941 5   
7942 5   
7943 3   
7944 1   
7945 8   
7946 2   
7947 5   
7948 5   
7949 6   
7950 3   
7951 9   
7952 1   
7953 2   
7954 6   
7955 9   
7956 7   
7957 10  
7958 4   
7959 8   
7960 2   
7961 2   
7962 9   
7963 6   
7964 9   
7965 10  
7966 2   
7967 2   
7968 1   
7969 8   
7970 5   
7971 1   
7972 3   
7973 7   
7974 1   
7975 6   
7976 5   
7977 4   
7978 10  
7979 5   
7980 4   
7981 4   
7982 8   
7983 7   
7984 9   
7985 7   
7986 6   
7987 9   
7988 6   
7989 7   
7990 2   
7991 7   
7992 10  
7993 5   
7994 3   
7995 8   
7996 3   
7997 4   
7998 8   
7999 6   
8000 4   
8001 7   
8002 5   
8003 5   
8004 1   
8005 1   
8006 3   
8007 1   
8008 10  
8009 1   
8010 1   
8011 8   
8012 8   
8013 2   
8014 1   
8015 10  
8016 2   
8017 4   
8018 3   
8019 1   
8020 8   
8021 9   
8022 7   
8023 3   
8024 2   
8025 1   
8026 4   
8027 4   
8028 8   
8029 6   
8030 10  
8031 5   
8032 4   
8033 9   
8034 7   
8035 9   
8036 6   
8037 8   
8038 7   
8039 7   
8040 8   
8041 8   
8042 3   
8043 9   
8044 5   
8045 4   
8046 8   
8047 4   
8048 1   
8049 7   
8050 6   
8051 4   
8052 10  
8053 10  
8054 10  
8055 5   
8056 1   
8057 3   
8058 1   
8059 3   
8060 9   
8061 5   
8062 8   
8063 3   
8064 5   
8065 9   
8066 5   
8067 10  
8068 9   
8069 7   
8070 2   
8071 4   
8072 6   
8073 7   
8074 5   
8075 9   
8076 2   
8077 9   
8078 3   
8079 9   
8080 9   
8081 1   
8082 7   
8083 4   
8084 1   
8085 10  
8086 5   
8087 10  
8088 3   
8089 2   
8090 5   
8091 8   
8092 4   
8093 1   
8094 5   
8095 7   
8096 5   
8097 9   
8098 8   
8099 4   
8100 2   
8101 5   
8102 1   
8103 8   
8104 9   
8105 5   
8106 3   
8107 10  
8108 9   
8109 4   
8110 6   
8111 2   
8112 3   
8113 6   
8114 1   
8115 7   
8116 8   
8117 1   
8118 4   
8119 2   
8120 8   
8121 7   
8122 6   
8123 7   
8124 6   
8125 3   
8126 6   
8127 2   
8128 10  
8129 3   
8130 10  
8131 6   
8132 4   
8133 1   
8134 4   
8135 1   
8136 5   
8137 3   
8138 4   
8139 6   
8140 5   
8141 5   
8142 9   
8143 10  
8144 6   
8145 3   
8146 2   
8147 4   
8148 2   
8149 9   
8150 10  
8151 10  
8152 6   
8153 5   
8154 5   
8155 8   
8156 10  
8157 4   
8158 10  
8159 9   
8160 9   
8161 5   
8162 1   
8163 1   
8164 8   
8165 3   
8166 1   
8167 6   
8168 10  
8169 5   
8170 5   
8171 6   
8172 5   
8173 3   
8174 10  
8175 10  
8176 9   
8177 10  
8178 2   
8179 7   
8180 4   
8181 10  
8182 9   
8183 2   
8184 7   
8185 2   
8186 2   
8187 1   
8188 3   
8189 8   
8190 5   
8191 3   
8192 3   
8193 8   
8194 9   
8195 7   
8196 7   
8197 8   
8198 10  
8199 8   
8200 4   
8201 9   
8202 8   
8203 10  
8204 1   
8205 1   
8206 9   
8207 7   
8208 9   
8209 4   
8210 10  
8211 10  
8212 8   
8213 1   
8214 9   
8215 5   
8216 5   
8217 8   
8218 6   
8219 5   
8220 5   
8221 9   
8222 2   
8223 3   
8224 7   
8225 7   
8226 3   
8227 6   
8228 4   
8229 3   
8230 3   
8231 1   
8232 2   
8233 2   
8234 9   
8235 10  
8236 7   
8237 7   
8238 1   
8239 9   
8240 7   
8241 10  
8242 8   
8243 10  
8244 6   
8245 10  
8246 1   
8247 9   
8248 1   
8249 8   
8250 8   
8251 6   
8252 10  
8253 3   
8254 3   
8255 6   
8256 5   
8257 7   
8258 10  
8259 4   
8260 1   
8261 3   
8262 6   
8263 10  
8264 4   
8265 4   
8266 10  
8267 3   
8268 3   
8269 1   
8270 7   
8271 6   
8272 2   
8273 9   
8274 2   
8275 4   
8276 5   
8277 2   
8278 3   
8279 5   
8280 5   
8281 9   
8282 1   
8283 2   
8284 5   
8285 9   
8286 6   
8287 7   
8288 6   
8289 5   
8290 10  
8291 8   
8292 9   
8293 9   
8294 2   
8295 7   
8296 7   
8297 2   
8298 2   
8299 10  
8300 5   
8301 4   
8302 10  
8303 2   
8304 3   
8305 6   
8306 7   
8307 9   
8308 5   
8309 9   
8310 4   
8311 7   
8312 1   
8313 4   
8314 9   
8315 8   
8316 7   
8317 7   
8318 3   
8319 1   
8320 8   
8321 10  
8322 7   
8323 6   
8324 3   
8325 1   
8326 10  
8327 6   
8328 3   
8329 3   
8330 5   
8331 6   
8332 4   
8333 3   
8334 8   
8335 2   
8336 5   
8337 4   
8338 5   
8339 4   
8340 10  
8341 8   
8342 1   
8343 2   
8344 9   
8345 4   
8346 3   
8347 7   
8348 9   
8349 2   
8350 8   
8351 7   
8352 6   
8353 8   
8354 2   
8355 8   
8356 10  
8357 7   
8358 6   
8359 3   
8360 1   
8361 1   
8362 10  
8363 5   
8364 7   
8365 7   
8366 6   
8367 3   
8368 3   
8369 1   
8370 10  
8371 6   
8372 2   
8373 10  
8374 2   
8375 8   
8376 2   
8377 8   
8378 3   
8379 3   
8380 3   
8381 2   
8382 2   
8383 4   
8384 9   
8385 8   
8386 8   
8387 2   
8388 5   
8389 8   
8390 8   
8391 1   
8392 6   
8393 1   
8394 3   
8395 5   
8396 6   
8397 8   
8398 6   
8399 1   
8400 6   
8401 2   
8402 10  
8403 3   
8404 5   
8405 8   
8406 4   
8407 10  
8408 1   
8409 1   
8410 6   
8411 2   
8412 10  
8413 2   
8414 6   
8415 9   
8416 7   
8417 9   
8418 10  
8419 6   
8420 9   
8421 6   
8422 2   
8423 7   
8424 2   
8425 7   
8426 4   
8427 7   
8428 9   
8429 9   
8430 9   
8431 3   
8432 6   
8433 8   
8434 6   
8435 5   
8436 9   
8437 3   
8438 3   
8439 7   
8440 6   
8441 5   
8442 3   
8443 6   
8444 3   
8445 1   
8446 10  
8447 6   
8448 8   
8449 1   
8450 1   
8451 9   
8452 2   
8453 4   
8454 4   
8455 6   
8456 3   
8457 10  
8458 6   
8459 8   
8460 7   
8461 6   
8462 5   
8463 5   
8464 6   
8465 8   
8466 6   
8467 4   
8468 9   
8469 5   
8470 4   
8471 4   
8472 3   
8473 3   
8474 5   
8475 6   
8476 4   
8477 1   
8478 3   
8479 1   
8480 5   
8481 1   
8482 3   
8483 9   
8484 2   
8485 5   
8486 2   
8487 9   
8488 10  
8489 10  
8490 10  
8491 8   
8492 9   
8493 2   
8494 3   
8495 3   
8496 5   
8497 1   
8498 10  
8499 10  
8500 9   
8501 6   
8502 4   
8503 7   
8504 7   
8505 4   
8506 10  
8507 3   
8508 2   
8509 2   
8510 2   
8511 9   
8512 7   
8513 3   
8514 10  
8515 10  
8516 10  
8517 4   
8518 10  
8519 6   
8520 2   
8521 5   
8522 3   
8523 10  
8524 2   
8525 10  
8526 6   
8527 2   
8528 1   
8529 4   
8530 1   
8531 7   
8532 4   
8533 10  
8534 1   
8535 4   
8536 7   
8537 2   
8538 1   
8539 7   
8540 9   
8541 9   
8542 6   
8543 5   
8544 8   
8545 7   
8546 2   
8547 7   
8548 7   
8549 2   
8550 9   
8551 6   
8552 4   
8553 5   
8554 3   
8555 2   
8556 8   
8557 9   
8558 10  
8559 9   
8560 7   
8561 2   
8562 5   
8563 4   
8564 4   
8565 8   
8566 2   
8567 10  
8568 9   
8569 8   
8570 10  
8571 4   
8572 1   
8573 4   
8574 9   
8575 6   
8576 7   
8577 4   
8578 8   
8579 3   
8580 10  
8581 10  
8582 10  
8583 4   
8584 4   
8585 2   
8586 5   
8587 1   
8588 7   
8589 3   
8590 5   
8591 9   
8592 1   
8593 10  
8594 10  
8595 8   
8596 7   
8597 2   
8598 3   
8599 2   
8600 5   
8601 6   
8602 9   
8603 10  
8604 5   
8605 1   
8606 9   
8607 4   
8608 3   
8609 10  
8610 7   
8611 4   
8612 4   
8613 8   
8614 4   
8615 4   
8616 3   
8617 6   
8618 2   
8619 3   
8620 7   
8621 9   
8622 8   
8623 4   
8624 2   
8625 7   
8626 8   
8627 7   
8628 5   
8629 6   
8630 6   
8631 10  
8632 3   
8633 9   
8634 4   
8635 9   
8636 2   
8637 9   
8638 6   
8639 8   
8640 9   
8641 4   
8642 1   
8643 3   
8644 1   
8645 9   
8646 7   
8647 2   
8648 8   
8649 6   
8650 3   
8651 6   
8652 8   
8653 10  
8654 7   
8655 9   
8656 5   
8657 10  
8658 8   
8659 9   
8660 6   
8661 5   
8662 10  
8663 3   
8664 9   
8665 7   
8666 6   
8667 9   
8668 4   
8669 2   
8670 8   
8671 10  
8672 1   
8673 7   
8674 1   
8675 4   
8676 4   
8677 8   
8678 10  
8679 6   
8680 1   
8681 4   
8682 4   
8683 8   
8684 4   
8685 6   
8686 5   
8687 3   
8688 1   
8689 9   
8690 3   
8691 5   
8692 3   
8693 3   
8694 9   
8695 5   
8696 5   
8697 1   
8698 4   
8699 8   
8700 6   
8701 8   
8702 7   
8703 5   
8704 6   
8705 4   
8706 6   
8707 9   
8708 3   
8709 9   
8710 2   
8711 7   
8712 5   
8713 3   
8714 9   
8715 8   
8716 2   
8717 1   
8718 7   
8719 6   
8720 10  
8721 6   
8722 10  
8723 3   
8724 8   
8725 5   
8726 10  
8727 1   
8728 5   
8729 1   
8730 2   
8731 10  
8732 6   
8733 8   
8734 8   
8735 2   
8736 7   
8737 4   
8738 1   
8739 4   
8740 8   
8741 7   
8742 8   
8743 2   
8744 9   
8745 5   
8746 5   
8747 2   
8748 2   
8749 4   
8750 5   
8751 1   
8752 5   
8753 8   
8754 6   
8755 10  
8756 7   
8757 5   
8758 7   
8759 7   
8760 1   
8761 9   
8762 3   
8763 4   
8764 5   
8765 2   
8766 4   
8767 1   
8768 5   
8769 5   
8770 9   
8771 1   
8772 6   
8773 9   
8774 9   
8775 10  
8776 9   
8777 3   
8778 6   
8779 4   
8780 4   
8781 7   
8782 9   
8783 10  
8784 1   
8785 8   
8786 5   
8787 2   
8788 6   
8789 4   
8790 9   
8791 7   
8792 8   
8793 7   
8794 8   
8795 1   
8796 7   
8797 1   
8798 1   
8799 10  
8800 8   
8801 1   
8802 9   
8803 4   
8804 7   
8805 5   
8806 9   
8807 2   
8808 2   
8809 6   
8810 6   
8811 7   
8812 3   
8813 1   
8814 6   
8815 7   
8816 9   
8817 5   
8818 7   
8819 6   
8820 8   
8821 4   
8822 4   
8823 10  
8824 4   
8825 8   
8826 7   
8827 7   
8828 2   
8829 6   
8830 8   
8831 2   
8832 6   
8833 4   
8834 10  
8835 1   
8836 1   
8837 4   
8838 10  
8839 7   
8840 3   
8841 8   
8842 2   
8843 9   
8844 8   
8845 5   
8846 3   
8847 1   
8848 9   
8849 3   
8850 6   
8851 2   
8852 2   
8853 6   
8854 3   
8855 4   
8856 3   
8857 8   
8858 4   
8859 9   
8860 6   
8861 5   
8862 4   
8863 8   
8864 10  
8865 6   
8866 10  
8867 5   
8868 2   
8869 2   
8870 7   
8871 5   
8872 2   
8873 9   
8874 5   
8875 8   
8876 3   
8877 6   
8878 4   
8879 7   
8880 7   
8881 7   
8882 5   
8883 1   
8884 6   
8885 2   
8886 2   
8887 10  
8888 6   
8889 6   
8890 5   
8891 5   
8892 6   
8893 10  
8894 2   
8895 10  
8896 10  
8897 9   
8898 6   
8899 1   
8900 2   
8901 6   
8902 1   
8903 9   
8904 10  
8905 10  
8906 5   
8907 4   
8908 3   
8909 7   
8910 5   
8911 3   
8912 3   
8913 10  
8914 9   
8915 2   
8916 1   
8917 4   
8918 10  
8919 10  
8920 7   
8921 3   
8922 6   
8923 1   
8924 2   
8925 9   
8926 6   
8927 8   
8928 7   
8929 3   
8930 8   
8931 1   
8932 1   
8933 10  
8934 10  
8935 8   
8936 8   
8937 9   
8938 8   
8939 1   
8940 5   
8941 7   
8942 10  
8943 2   
8944 7   
8945 7   
8946 8   
8947 4   
8948 4   
8949 6   
8950 6   
8951 2   
8952 6   
8953 4   
8954 7   
8955 8   
8956 1   
8957 2   
8958 5   
8959 1   
8960 3   
8961 4   
8962 5   
8963 6   
8964 8   
8965 3   
8966 8   
8967 7   
8968 7   
8969 7   
8970 5   
8971 7   
8972 8   
8973 7   
8974 1   
8975 1   
8976 6   
8977 2   
8978 8   
8979 8   
8980 8   
8981 4   
8982 1   
8983 9   
8984 3   
8985 7   
8986 9   
8987 8   
8988 7   
8989 2   
8990 8   
8991 6   
8992 5   
8993 9   
8994 9   
8995 3   
8996 10  
8997 9   
8998 1   
8999 5   
9000 6   
9001 6   
9002 6   
9003 9   
9004 2   
9005 10  
9006 6   
9007 2   
9008 3   
9009 7   
9010 4   
9011 4   
9012 6   
9013 10  
9014 7   
9015 6   
9016 7   
9017 8   
9018 2   
9019 8   
9020 6   
9021 8   
9022 10  
9023 2   
9024 7   
9025 6   
9026 6   
9027 9   
9028 8   
9029 5   
9030 10  
9031 3   
9032 1   
9033 9   
9034 4   
9035 7   
9036 1   
9037 3   
9038 4   
9039 10  
9040 6   
9041 8   
9042 2   
9043 5   
9044 4   
9045 2   
9046 4   
9047 3   
9048 5   
9049 3   
9050 3   
9051 4   
9052 4   
9053 9   
9054 7   
9055 6   
9056 7   
9057 1   
9058 5   
9059 3   
9060 2   
9061 9   
9062 6   
9063 10  
9064 1   
9065 1   
9066 9   
9067 3   
9068 1   
9069 8   
9070 1   
9071 8   
9072 5   
9073 10  
9074 5   
9075 8   
9076 7   
9077 5   
9078 1   
9079 4   
9080 7   
9081 7   
9082 5   
9083 9   
9084 4   
9085 6   
9086 9   
9087 4   
9088 8   
9089 1   
9090 9   
9091 3   
9092 9   
9093 8   
9094 6   
9095 3   
9096 7   
9097 3   
9098 7   
9099 1   
9100 3   
9101 7   
9102 4   
9103 2   
9104 8   
9105 9   
9106 9   
9107 6   
9108 9   
9109 7   
9110 9   
9111 10  
9112 10  
9113 1   
9114 6   
9115 8   
9116 1   
9117 4   
9118 7   
9119 10  
9120 6   
9121 5   
9122 1   
9123 1   
9124 5   
9125 6   
9126 8   
9127 8   
9128 8   
9129 5   
9130 7   
9131 8   
9132 1   
9133 8   
9134 4   
9135 3   
9136 1   
9137 8   
9138 1   
9139 1   
9140 7   
9141 2   
9142 10  
9143 9   
9144 9   
9145 1   
9146 4   
9147 5   
9148 5   
9149 8   
9150 2   
9151 1   
9152 8   
9153 10  
9154 6   
9155 2   
9156 7   
9157 10  
9158 9   
9159 8   
9160 5   
9161 4   
9162 8   
9163 4   
9164 6   
9165 10  
9166 4   
9167 10  
9168 5   
9169 10  
9170 1   
9171 10  
9172 3   
9173 9   
9174 4   
9175 8   
9176 3   
9177 8   
9178 2   
9179 1   
9180 2   
9181 3   
9182 3   
9183 6   
9184 9   
9185 5   
9186 5   
9187 6   
9188 1   
9189 10  
9190 8   
9191 5   
9192 10  
9193 3   
9194 6   
9195 7   
9196 6   
9197 1   
9198 6   
9199 10  
9200 2   
9201 10  
9202 6   
9203 3   
9204 7   
9205 4   
9206 9   
9207 1   
9208 7   
9209 3   
9210 3   
9211 7   
9212 5   
9213 2   
9214 1   
9215 8   
9216 1   
9217 10  
9218 4   
9219 6   
9220 5   
9221 2   
9222 1   
9223 5   
9224 4   
9225 1   
9226 4   
9227 3   
9228 10  
9229 6   
9230 3   
9231 7   
9232 3   
9233 3   
9234 4   
9235 1   
9236 2   
9237 3   
9238 7   
9239 2   
9240 6   
9241 4   
9242 6   
9243 3   
9244 4   
9245 3   
9246 4   
9247 10  
9248 4   
9249 2   
9250 6   
9251 6   
9252 2   
9253 8   
9254 9   
9255 10  
9256 5   
9257 2   
9258 1   
9259 1   
9260 10  
9261 6   
9262 7   
9263 9   
9264 1   
9265 9   
9266 2   
9267 6   
9268 7   
9269 4   
9270 5   
9271 7   
9272 7   
9273 10  
9274 3   
9275 3   
9276 7   
9277 7   
9278 2   
9279 9   
9280 8   
9281 6   
9282 6   
9283 6   
9284 1   
9285 5   
9286 8   
9287 7   
9288 6   
9289 1   
9290 7   
9291 3   
9292 1   
9293 6   
9294 3   
9295 1   
9296 7   
9297 5   
9298 5   
9299 1   
9300 5   
9301 1   
9302 9   
9303 9   
9304 9   
9305 2   
9306 2   
9307 1   
9308 6   
9309 5   
9310 5   
9311 10  
9312 4   
9313 10  
9314 3   
9315 1   
9316 8   
9317 5   
9318 10  
9319 2   
9320 3   
9321 2   
9322 5   
9323 8   
9324 10  
9325 4   
9326 9   
9327 3   
9328 10  
9329 5   
9330 9   
9331 6   
9332 6   
9333 10  
9334 8   
9335 8   
9336 10  
9337 8   
9338 6   
9339 8   
9340 4   
9341 9   
9342 4   
9343 10  
9344 6   
9345 7   
9346 6   
9347 1   
9348 1   
9349 9   
9350 2   
9351 1   
9352 3   
9353 4   
9354 10  
9355 7   
9356 6   
9357 9   
9358 7   
9359 4   
9360 9   
9361 8   
9362 8   
9363 1   
9364 7   
9365 7   
9366 7   
9367 5   
9368 1   
9369 7   
9370 6   
9371 1   
9372 2   
9373 3   
9374 8   
9375 1   
9376 2   
9377 4   
9378 5   
9379 7   
9380 1   
9381 2   
9382 2   
9383 2   
9384 5   
9385 6   
9386 2   
9387 9   
9388 4   
9389 8   
9390 10  
9391 7   
9392 4   
9393 7   
9394 8   
9395 9   
9396 7   
9397 10  
9398 7   
9399 8   
9400 2   
9401 3   
9402 7   
9403 9   
9404 3   
9405 6   
9406 1   
9407 2   
9408 6   
9409 3   
9410 6   
9411 5   
9412 5   
9413 5   
9414 3   
9415 4   
9416 4   
9417 3   
9418 5   
9419 3   
9420 5   
9421 5   
9422 4   
9423 2   
9424 7   
9425 5   
9426 9   
9427 3   
9428 4   
9429 5   
9430 9   
9431 8   
9432 6   
9433 3   
9434 10  
9435 8   
9436 8   
9437 10  
9438 9   
9439 3   
9440 6   
9441 10  
9442 4   
9443 5   
9444 4   
9445 7   
9446 10  
9447 4   
9448 10  
9449 6   
9450 7   
9451 1   
9452 7   
9453 5   
9454 6   
9455 1   
9456 7   
9457 6   
9458 9   
9459 9   
9460 6   
9461 2   
9462 6   
9463 6   
9464 4   
9465 5   
9466 6   
9467 5   
9468 3   
9469 1   
9470 2   
9471 8   
9472 3   
9473 10  
9474 10  
9475 2   
9476 2   
9477 9   
9478 2   
9479 3   
9480 4   
9481 6   
9482 3   
9483 5   
9484 5   
9485 8   
9486 9   
9487 6   
9488 4   
9489 8   
9490 6   
9491 4   
9492 7   
9493 9   
9494 10  
9495 3   
9496 4   
9497 3   
9498 4   
9499 3   
9500 4   
9501 2   
9502 9   
9503 5   
9504 8   
9505 9   
9506 5   
9507 10  
9508 8   
9509 1   
9510 6   
9511 1   
9512 5   
9513 4   
9514 1   
9515 6   
9516 3   
9517 9   
9518 10  
9519 9   
9520 10  
9521 5   
9522 9   
9523 2   
9524 3   
9525 8   
9526 2   
9527 9   
9528 1   
9529 9   
9530 5   
9531 1   
9532 8   
9533 9   
9534 6   
9535 9   
9536 10  
9537 6   
9538 9   
9539 4   
9540 2   
9541 2   
9542 2   
9543 9   
9544 1   
9545 3   
9546 5   
9547 5   
9548 2   
9549 7   
9550 10  
9551 5   
9552 4   
9553 1   
9554 6   
9555 1   
9556 10  
9557 5   
9558 10  
9559 6   
9560 2   
9561 2   
9562 6   
9563 9   
9564 3   
9565 9   
9566 4   
9567 3   
9568 9   
9569 10  
9570 7   
9571 10  
9572 2   
9573 5   
9574 3   
9575 6   
9576 1   
9577 6   
9578 7   
9579 6   
9580 4   
9581 9   
9582 1   
9583 5   
9584 6   
9585 4   
9586 10  
9587 8   
9588 5   
9589 6   
9590 9   
9591 4   
9592 8   
9593 10  
9594 10  
9595 8   
9596 9   
9597 6   
9598 6   
9599 7   
9600 8   
9601 3   
9602 9   
9603 5   
9604 6   
9605 9   
9606 7   
9607 4   
9608 4   
9609 7   
9610 10  
9611 3   
9612 8   
9613 5   
9614 9   
9615 8   
9616 3   
9617 6   
9618 4   
9619 10  
9620 3   
9621 9   
9622 6   
9623 3   
9624 5   
9625 10  
9626 9   
9627 4   
9628 3   
9629 9   
9630 8   
9631 3   
9632 4   
9633 1   
9634 5   
9635 10  
9636 2   
9637 7   
9638 8   
9639 3   
9640 3   
9641 4   
9642 6   
9643 7   
9644 4   
9645 6   
9646 1   
9647 7   
9648 6   
9649 7   
9650 10  
9651 4   
9652 4   
9653 5   
9654 2   
9655 2   
9656 7   
9657 5   
9658 9   
9659 6   
9660 1   
9661 7   
9662 2   
9663 6   
9664 1   
9665 8   
9666 4   
9667 10  
9668 10  
9669 9   
9670 8   
9671 8   
9672 7   
9673 2   
9674 4   
9675 7   
9676 5   
9677 6   
9678 1   
9679 8   
9680 2   
9681 1   
9682 5   
9683 3   
9684 10  
9685 7   
9686 6   
9687 2   
9688 9   
9689 8   
9690 9   
9691 4   
9692 7   
9693 8   
9694 4   
9695 4   
9696 8   
9697 4   
9698 2   
9699 4   
9700 6   
9701 8   
9702 3   
9703 4   
9704 2   
9705 10  
9706 4   
9707 2   
9708 5   
9709 1   
9710 3   
9711 10  
9712 3   
9713 1   
9714 1   
9715 9   
9716 5   
9717 2   
9718 2   
9719 6   
9720 8   
9721 7   
9722 4   
9723 4   
9724 5   
9725 10  
9726 7   
9727 2   
9728 3   
9729 8   
9730 3   
9731 4   
9732 7   
9733 6   
9734 5   
9735 7   
9736 6   
9737 2   
9738 10  
9739 7   
9740 4   
9741 6   
9742 10  
9743 3   
9744 9   
9745 2   
9746 2   
9747 9   
9748 7   
9749 7   
9750 1   
9751 6   
9752 9   
9753 10  
9754 8   
9755 5   
9756 7   
9757 7   
9758 4   
9759 4   
9760 4   
9761 1   
9762 9   
9763 2   
9764 10  
9765 6   
9766 2   
9767 3   
9768 3   
9769 4   
9770 10  
9771 8   
9772 10  
9773 9   
9774 1   
9775 1   
9776 4   
9777 1   
9778 7   
9779 4   
9780 8   
9781 3   
9782 1   
9783 2   
9784 5   
9785 5   
9786 5   
9787 3   
9788 3   
9789 10  
9790 6   
9791 8   
9792 5   
9793 5   
9794 8   
9795 4   
9796 2   
9797 3   
9798 8   
9799 9   
9800 3   
9801 8   
9802 9   
9803 5   
9804 9   
9805 7   
9806 4   
9807 6   
9808 2   
9809 4   
9810 5   
9811 3   
9812 2   
9813 3   
9814 4   
9815 9   
9816 10  
9817 1   
9818 2   
9819 2   
9820 2   
9821 5   
9822 10  
9823 4   
9824 3   
9825 9   
9826 3   
9827 1   
9828 9   
9829 6   
9830 2   
9831 6   
9832 5   
9833 8   
9834 1   
9835 6   
9836 8   
9837 1   
9838 8   
9839 1   
9840 2   
9841 1   
9842 2   
9843 1   
9844 5   
9845 3   
9846 2   
9847 5   
9848 2   
9849 3   
9850 4   
9851 5   
9852 3   
9853 9   
9854 8   
9855 1   
9856 3   
9857 5   
9858 10  
9859 9   
9860 9   
9861 4   
9862 10  
9863 10  
9864 1   
9865 8   
9866 8   
9867 5   
9868 1   
9869 9   
9870 10  
9871 5   
9872 1   
9873 2   
9874 1   
9875 9   
9876 4   
9877 7   
9878 6   
9879 10  
9880 3   
9881 2   
9882 6   
9883 4   
9884 8   
9885 1   
9886 1   
9887 7   
9888 8   
9889 9   
9890 2   
9891 10  
9892 7   
9893 3   
9894 2   
9895 1   
9896 7   
9897 7   
9898 10  
9899 1   
9900 1   
9901 5   
9902 5   
9903 5   
9904 7   
9905 10  
9906 8   
9907 4   
9908 9   
9909 3   
9910 6   
9911 4   
9912 9   
9913 3   
9914 5   
9915 2   
9916 7   
9917 1   
9918 2   
9919 2   
9920 3   
9921 4   
9922 1   
9923 4   
9924 4   
9925 1   
9926 6   
9927 2   
9928 2   
9929 4   
9930 2   
9931 10  
9932 8   
9933 8   
9934 5   
9935 8   
9936 10  
9937 7   
9938 1   
9939 10  
9940 5   
9941 8   
9942 9   
9943 4   
9944 8   
9945 2   
9946 4   
9947 7   
9948 4   
9949 5   
9950 1   
9951 6   
9952 10  
9953 7   
9954 1   
9955 6   
9956 2   
9957 4   
9958 3   
9959 7   
9960 10  
9961 6   
9962 2   
9963 8   
9964 8   
9965 1   
9966 8   
9967 10  
9968 3   
9969 1   
9970 1   
9971 4   
9972 8   
9973 1   
9974 9   
9975 1   
9976 7   
9977 5   
9978 10  
9979 2   
9980 1   
9981 8   
9982 4   
9983 8   
9984 1   
9985 3   
9986 1   
9987 7   
9988 1   
9989 8   
9990 8   
9991 1   
9992 6   
9993 9   
9994 4   
9995 5   
9996 4   
9997 8   
9998 6   
9999 5   
10000 7   
10001 4   
DEPOT_SECTION
1
-1
EOF
