NAME : XML25000_2173_01
COMMENT : Generated as the XML100 dataset from the CVRPLIB
TYPE : CVRP
DIMENSION : 25001
EDGE_WEIGHT_TYPE : EUC_2D
CAPACITY : 149
NODE_COORD_SECTION
1    5000 5000
2    4448 1301
3    1635 1212
4    8443 8169
5    7195 2748
6    2662 634 
7    2987 876 
8    2198 3829
9    3993 6205
10   2062 8223
11   4977 2375
12   318  7626
13   8724 8174
14   5458 5793
15   2792 1250
16   4037 9716
17   9720 4024
18   8661 1838
19   5913 4989
20   3472 2788
21   3951 9667
22   5601 8048
23   4259 7063
24   9544 9226
25   1017 857 
26   1200 4662
27   3338 6389
28   9251 6737
29   6019 9262
30   7344 8716
31   6197 7065
32   2602 3784
33   164  5863
34   4778 2375
35   9086 803 
36   6878 840 
37   1094 761 
38   2439 6544
39   3436 3510
40   9182 2657
41   3295 6344
42   7334 4369
43   9234 3681
44   794  5103
45   4868 4262
46   4652 9061
47   9766 9957
48   8348 8261
49   3649 7034
50   9261 9081
51   718  345 
52   110  5985
53   2517 3888
54   4909 1294
55   810  5926
56   7460 7748
57   6584 1027
58   131  1353
59   5747 1612
60   5497 2849
61   4340 4105
62   4252 4762
63   9479 6018
64   3524 3239
65   9393 8700
66   1499 5326
67   1906 8388
68   4370 4017
69   8028 7234
70   1421 1344
71   3631 1979
72   8381 4455
73   2400 282 
74   752  7071
75   5838 9703
76   8753 8831
77   233  542 
78   45   3683
79   4051 6085
80   6440 9085
81   3208 2940
82   2979 2714
83   4090 9743
84   2162 3254
85   4410 2817
86   3198 3996
87   9010 6162
88   8535 4598
89   9686 2675
90   403  833 
91   2795 8358
92   3363 3872
93   7246 1979
94   89   1153
95   4891 7746
96   9048 2768
97   3965 118 
98   7125 5407
99   3824 1370
100  5368 2039
101  4844 3092
102  8345 9918
103  6249 7338
104  8726 3659
105  4880 1550
106  2850 8580
107  9174 3125
108  6248 7810
109  577  8881
110  7639 3337
111  7819 4507
112  6072 6466
113  4708 6773
114  874  3761
115  4543 7593
116  5291 2622
117  617  3496
118  6375 3749
119  8895 9191
120  1148 4021
121  3863 8015
122  1722 7217
123  3697 5316
124  5471 9361
125  6944 9990
126  586  9240
127  6870 1865
128  9127 6335
129  8609 4673
130  2203 9302
131  7827 2933
132  4294 5256
133  766  5974
134  7898 7071
135  2544 7630
136  8337 8176
137  4408 6515
138  2808 2355
139  9186 5982
140  7134 2795
141  1501 6039
142  5492 9028
143  8474 1478
144  2522 428 
145  2564 4581
146  3773 576 
147  7840 7997
148  4244 333 
149  5866 8144
150  5258 4014
151  2441 5233
152  5716 2534
153  4591 9476
154  2957 5108
155  7126 9951
156  7314 4013
157  7812 5052
158  8375 6279
159  3008 9441
160  1877 2830
161  258  627 
162  8246 4428
163  5746 4110
164  6255 6293
165  465  2753
166  9669 5305
167  5431 1900
168  687  4279
169  4025 6714
170  9036 3016
171  4374 1677
172  8799 1107
173  4628 3940
174  6431 1   
175  3561 3335
176  1548 2081
177  6205 9619
178  4248 815 
179  6511 420 
180  1726 2215
181  5569 8769
182  2626 1094
183  5905 8979
184  2508 8910
185  8998 6356
186  4864 4971
187  7209 1374
188  4540 8814
189  6495 4724
190  3967 5940
191  118  3644
192  7959 9570
193  8247 4140
194  6597 8092
195  3190 8981
196  7559 646 
197  4316 28  
198  6504 5568
199  1911 751 
200  8324 3574
201  4687 2448
202  6257 5157
203  6629 784 
204  3071 6994
205  4712 6067
206  4594 444 
207  5405 9416
208  6026 8018
209  1565 2636
210  60   9236
211  1148 977 
212  7824 1348
213  1121 3959
214  6912 4878
215  3083 9313
216  8381 8899
217  4040 9308
218  6608 1105
219  5339 1722
220  7980 3534
221  3906 2519
222  7382 1219
223  2438 8068
224  1952 4186
225  3462 7644
226  7143 4729
227  2986 4536
228  286  3216
229  5433 5332
230  8127 6345
231  8628 5874
232  5068 2248
233  5841 1833
234  5560 5123
235  1091 3430
236  3032 5932
237  5374 8926
238  8650 8008
239  9777 7621
240  3137 8867
241  8838 5142
242  4721 7570
243  3034 3607
244  9647 4053
245  8162 9483
246  7771 5331
247  6693 9234
248  8489 2460
249  594  4382
250  8954 5259
251  297  805 
252  5978 856 
253  9452 5473
254  7045 7046
255  3129 57  
256  9808 5516
257  8895 5001
258  6536 9345
259  4692 7487
260  5536 7752
261  2299 4924
262  9808 6482
263  5997 6948
264  3440 4919
265  1686 4850
266  1392 781 
267  4211 8606
268  446  4013
269  7964 2654
270  3218 6692
271  7652 1230
272  1894 2007
273  831  1539
274  6555 3517
275  3436 5268
276  8942 8991
277  1620 3819
278  6103 9690
279  7406 8930
280  1470 9484
281  8878 2515
282  878  6980
283  7991 6562
284  4650 8085
285  2124 2378
286  1850 9139
287  7643 189 
288  3533 9431
289  3880 3159
290  5552 2529
291  7436 3716
292  1355 283 
293  7833 9295
294  2025 6528
295  9307 8193
296  8379 4341
297  6317 1241
298  6799 117 
299  4374 7152
300  9800 595 
301  5761 4297
302  2688 383 
303  3467 3783
304  466  888 
305  9408 6311
306  3841 3311
307  1292 3749
308  131  1414
309  9875 1857
310  6162 5367
311  3726 3422
312  2297 357 
313  2009 6599
314  2140 1013
315  8983 6069
316  2783 13  
317  1850 3861
318  5400 9587
319  4800 6808
320  3618 4960
321  3980 4223
322  1731 5663
323  2250 2715
324  7601 406 
325  3518 7166
326  6777 2722
327  8024 4907
328  7786 4790
329  5907 1716
330  1075 2763
331  8142 3115
332  9746 8214
333  7175 7466
334  5947 6981
335  4760 3584
336  4235 6694
337  8755 2626
338  6833 9592
339  9850 2317
340  3835 3849
341  5387 4019
342  7792 299 
343  1342 116 
344  7804 6615
345  7181 2043
346  1768 8603
347  1240 393 
348  3896 4508
349  3663 5461
350  7488 6345
351  4700 2149
352  9176 2076
353  2865 7850
354  1019 3773
355  860  8063
356  8165 8876
357  2125 5275
358  4550 3746
359  4502 7805
360  2151 8788
361  8080 8130
362  6867 7867
363  9015 4885
364  9863 5791
365  1792 8986
366  4753 4864
367  998  4074
368  2231 1437
369  5468 6720
370  5238 1099
371  8881 2606
372  4225 2303
373  9958 9316
374  2652 9719
375  7832 9324
376  8876 330 
377  7057 2139
378  3308 7606
379  2625 5601
380  1725 7656
381  9376 9848
382  7730 337 
383  637  1590
384  790  4434
385  8544 5225
386  5300 2619
387  8249 5424
388  6348 8638
389  5182 9733
390  4365 5300
391  9775 534 
392  7734 4695
393  7739 5243
394  3258 1536
395  3359 258 
396  2500 7320
397  70   2213
398  2355 5756
399  816  8828
400  251  8241
401  9614 480 
402  4646 2363
403  5800 9733
404  8826 4953
405  7080 8866
406  3363 6688
407  1264 904 
408  3633 97  
409  3674 3467
410  580  3114
411  6755 5548
412  117  1324
413  1034 3030
414  8191 4576
415  138  6716
416  6356 4868
417  2659 4690
418  8468 7525
419  2903 3000
420  897  7809
421  7243 7084
422  3464 8132
423  4547 3045
424  8965 2467
425  1848 1082
426  5732 5883
427  3165 3254
428  9895 9540
429  1704 5074
430  3306 9757
431  8609 9685
432  1786 7637
433  191  5810
434  1493 6460
435  4315 7122
436  2966 4048
437  7639 4695
438  8358 6686
439  3255 610 
440  8131 1183
441  4393 2397
442  964  697 
443  8147 149 
444  5394 7318
445  4881 2369
446  3858 8423
447  6337 3721
448  5770 1985
449  2327 3065
450  6229 5391
451  1644 7047
452  8555 7066
453  8296 4691
454  5010 2273
455  6505 2261
456  9205 1601
457  6846 9291
458  1681 2061
459  4941 6560
460  6220 5358
461  5387 8031
462  5878 8818
463  2804 6981
464  8331 5420
465  8188 7173
466  965  2480
467  7413 4279
468  6024 4287
469  9037 8710
470  4208 1236
471  6952 7707
472  2122 6975
473  8602 5624
474  3003 922 
475  608  9397
476  4609 2902
477  587  6123
478  6520 4742
479  8921 2771
480  8460 4089
481  1016 9946
482  6333 4664
483  292  632 
484  1007 8498
485  6743 4109
486  1828 7508
487  4796 5707
488  5084 4331
489  5799 1191
490  1414 2944
491  7646 4816
492  6338 1036
493  9949 5209
494  45   6773
495  5727 9564
496  6388 8857
497  7260 2718
498  2676 994 
499  2594 4597
500  6176 5993
501  3724 7125
502  8803 3247
503  3696 1508
504  1422 9427
505  3697 4866
506  6117 4719
507  7184 9105
508  8246 9869
509  4313 5435
510  7606 6642
511  6092 2493
512  9624 2517
513  1374 974 
514  7114 3155
515  1634 578 
516  6792 3963
517  9606 5286
518  1554 5390
519  3031 3330
520  4969 3966
521  1658 3723
522  2615 7535
523  7916 5762
524  1013 2805
525  4041 9909
526  5865 3197
527  2463 6104
528  5252 1311
529  2089 3475
530  2584 3370
531  8534 3253
532  2848 8119
533  3538 6787
534  2933 8796
535  1496 7204
536  6446 7031
537  5181 8338
538  9992 6433
539  4777 2595
540  8834 8340
541  3685 7822
542  166  1058
543  6745 9193
544  5717 2872
545  9773 2765
546  7740 3435
547  7107 8693
548  7156 5606
549  6322 2930
550  2764 4784
551  4596 1368
552  3271 9   
553  3252 6714
554  7970 1437
555  7226 4181
556  6992 9989
557  3997 671 
558  997  5528
559  920  8420
560  9381 4243
561  8880 5324
562  9544 7203
563  953  4868
564  5510 1350
565  7612 5032
566  9812 8394
567  2814 5546
568  5177 801 
569  3076 1666
570  7088 3896
571  862  4839
572  9134 9416
573  675  7856
574  6591 1981
575  3051 3947
576  184  8411
577  3487 9809
578  2466 2550
579  9063 3082
580  6947 622 
581  3278 7965
582  9583 5851
583  8508 3734
584  7355 1286
585  2980 4215
586  105  7377
587  491  9691
588  4339 2517
589  9366 5923
590  2163 2032
591  8223 7219
592  3500 2055
593  7589 4852
594  5431 3629
595  5267 8555
596  9470 3310
597  1396 6466
598  8857 3911
599  3048 9705
600  8623 4171
601  273  6861
602  9400 666 
603  7235 4094
604  4500 1611
605  267  963 
606  518  120 
607  4867 6288
608  3099 279 
609  6678 4729
610  938  3051
611  7058 3052
612  6804 3832
613  5936 7885
614  1865 2977
615  4683 1859
616  9836 978 
617  5629 4546
618  195  6468
619  580  1413
620  4148 5812
621  7048 5567
622  4814 8026
623  8680 271 
624  1452 5384
625  1441 4440
626  6065 2464
627  3405 8219
628  2676 8903
629  9651 4685
630  6224 8625
631  7534 6186
632  5171 8102
633  3827 5959
634  6692 7606
635  99   3313
636  1272 533 
637  6706 7514
638  9577 9757
639  2646 7240
640  4267 3963
641  8695 6457
642  4397 844 
643  3717 4676
644  5064 2915
645  9507 714 
646  7404 7551
647  812  2513
648  5806 7317
649  811  9999
650  3688 2234
651  288  1441
652  8759 2051
653  8811 2939
654  9051 7304
655  6195 2039
656  6002 1802
657  4621 1476
658  3124 2804
659  1429 3588
660  497  5744
661  5577 1371
662  6729 6582
663  805  4289
664  986  9906
665  9443 8835
666  1242 6909
667  239  7110
668  8537 9184
669  2337 5929
670  9408 8361
671  9967 7603
672  7502 713 
673  2656 2108
674  692  44  
675  351  9616
676  5658 2044
677  5577 9770
678  5550 2458
679  4899 8367
680  1263 3385
681  8927 465 
682  7366 3104
683  7877 9507
684  1530 5237
685  8576 7835
686  4799 5902
687  5945 2540
688  7720 1160
689  5477 624 
690  516  7315
691  1768 7980
692  4    5583
693  2674 9509
694  1960 8191
695  243  9624
696  5157 7611
697  6589 388 
698  9311 8949
699  3352 299 
700  3852 7283
701  4500 8432
702  4555 1674
703  6457 6111
704  9516 4549
705  7586 1197
706  6124 2569
707  520  4252
708  5983 8683
709  1578 5032
710  2716 4784
711  6917 2631
712  8987 7813
713  6174 1583
714  6077 6792
715  3936 8595
716  7215 4904
717  6398 2736
718  153  9365
719  6917 7105
720  1058 2141
721  4936 9695
722  3370 8955
723  9530 1739
724  2020 7800
725  6397 2009
726  1306 5845
727  5423 3510
728  1540 2055
729  2856 2947
730  5435 3311
731  184  7056
732  4725 1719
733  8073 3881
734  1685 5930
735  2842 5681
736  4174 1794
737  7594 9322
738  6505 4642
739  8049 2347
740  5769 8005
741  77   5014
742  2106 8238
743  8522 42  
744  7250 2831
745  6067 4913
746  1177 3110
747  7675 5209
748  4679 6226
749  9917 2070
750  6785 4786
751  6115 4125
752  7848 5648
753  3978 2539
754  5834 294 
755  3748 6348
756  9251 3069
757  1291 5429
758  2337 2379
759  8240 4945
760  9154 1352
761  5594 6153
762  2702 5356
763  1500 4673
764  4781 609 
765  8606 5934
766  7191 1590
767  2890 2278
768  8330 9049
769  3818 9495
770  8963 2244
771  6795 2246
772  3410 684 
773  8301 7689
774  687  717 
775  9668 8646
776  9419 3461
777  4553 3989
778  1080 5519
779  9302 6593
780  701  4794
781  2140 89  
782  6320 199 
783  4570 4312
784  4242 7139
785  5107 5107
786  4199 8529
787  9304 7744
788  1623 6765
789  9703 791 
790  8498 4052
791  3928 9521
792  2679 4163
793  5338 7550
794  5637 4028
795  3834 5010
796  5931 6308
797  4918 3889
798  147  1937
799  2343 8653
800  8059 6992
801  6986 9749
802  5495 8518
803  1863 3688
804  6940 2288
805  4630 8753
806  1026 1642
807  2453 1086
808  5069 4904
809  7631 1426
810  3946 8427
811  999  7547
812  716  3719
813  5092 5170
814  793  8581
815  6558 1829
816  945  9455
817  4576 1152
818  4449 1142
819  4950 8002
820  9325 2072
821  6925 4955
822  7203 5858
823  616  6664
824  5869 2834
825  1462 3740
826  6450 6890
827  2247 5691
828  8759 3911
829  726  6006
830  3587 8414
831  8370 9801
832  1870 8629
833  6602 7813
834  1661 7336
835  8355 3071
836  7526 54  
837  3273 3724
838  958  8277
839  9598 9902
840  443  5836
841  5323 5949
842  2446 1158
843  569  4597
844  1522 8355
845  2394 7994
846  1779 4135
847  7920 4195
848  2651 7833
849  8598 341 
850  1332 588 
851  4576 9999
852  412  875 
853  3209 5175
854  8887 1170
855  4868 9491
856  9476 5480
857  8399 3617
858  8785 1209
859  7357 5787
860  4236 5909
861  6401 7995
862  2183 4260
863  2169 4544
864  5205 1279
865  677  7541
866  9280 255 
867  822  6502
868  1275 6596
869  552  7260
870  2533 1157
871  8363 276 
872  8336 3572
873  2145 9941
874  4748 3392
875  5793 68  
876  5468 3310
877  5147 451 
878  6611 3051
879  9663 6054
880  1675 9291
881  7558 2443
882  9755 5884
883  6813 5520
884  1662 9126
885  6219 2445
886  8487 3412
887  7783 6700
888  4451 8757
889  4962 6167
890  1675 9751
891  2252 2020
892  9943 2010
893  3871 7900
894  4826 3329
895  8158 3828
896  6579 1562
897  6157 925 
898  8687 6476
899  1052 7506
900  5206 3523
901  5385 1217
902  2643 7757
903  8936 7736
904  2000 1411
905  630  3268
906  2348 6557
907  5396 4624
908  8220 9783
909  5632 8363
910  936  1032
911  4723 8414
912  9690 3189
913  4951 829 
914  8167 7864
915  70   8973
916  9307 7008
917  9746 6508
918  1764 8079
919  5314 9717
920  209  2253
921  10   4322
922  8086 3831
923  5375 6025
924  7253 3848
925  4318 5267
926  9905 8015
927  1836 673 
928  5321 5718
929  7933 8683
930  7946 6671
931  3459 8026
932  7393 427 
933  7960 3456
934  8731 7802
935  5046 9383
936  4813 3123
937  5234 6079
938  931  647 
939  1010 7112
940  9721 3945
941  3207 71  
942  605  341 
943  5295 3145
944  4510 7411
945  7506 6430
946  6046 8568
947  2972 5826
948  7491 4742
949  9923 2500
950  5858 2901
951  2691 595 
952  5143 5767
953  8137 2715
954  6887 2272
955  7562 689 
956  7885 7513
957  207  4702
958  4032 1112
959  5518 1976
960  1394 3868
961  6417 7469
962  5020 6252
963  6189 9237
964  1755 6836
965  1521 7523
966  1563 2851
967  1180 2321
968  5802 944 
969  3343 1936
970  4627 7666
971  2551 2730
972  8309 4438
973  4114 5892
974  18   2513
975  9012 5994
976  1403 5375
977  9138 6252
978  9817 9198
979  351  7870
980  7647 6462
981  9378 2385
982  4308 1591
983  9266 4022
984  4949 7646
985  2699 8687
986  5687 3896
987  1731 2491
988  5924 6013
989  763  599 
990  1992 9998
991  497  4947
992  5808 6167
993  4311 386 
994  7672 7481
995  5452 8485
996  9009 6228
997  1003 4001
998  9640 529 
999  6102 924 
1000 8155 6441
1001 5772 8859
1002 5910 178 
1003 5967 7012
1004 558  6787
1005 7228 6643
1006 9490 6365
1007 9006 247 
1008 4577 3028
1009 9255 1172
1010 2160 9924
1011 9253 9745
1012 7681 6862
1013 8195 520 
1014 6352 6235
1015 6843 5052
1016 665  7800
1017 5618 2382
1018 34   682 
1019 9023 3916
1020 3157 1924
1021 3503 232 
1022 4561 4816
1023 4140 8738
1024 3075 5497
1025 3956 3271
1026 12   1220
1027 4356 825 
1028 4249 5283
1029 9267 7861
1030 8951 7588
1031 3799 956 
1032 5992 3943
1033 6468 331 
1034 9454 5521
1035 4128 6453
1036 217  4049
1037 8189 4982
1038 9892 2942
1039 2011 3894
1040 8365 5783
1041 8886 4187
1042 812  9114
1043 8866 9216
1044 6197 2570
1045 3010 9339
1046 9314 4420
1047 2065 911 
1048 2540 431 
1049 1690 9454
1050 4604 9046
1051 1812 9917
1052 876  2852
1053 5846 1469
1054 7820 6235
1055 6299 8789
1056 1771 7166
1057 5937 7476
1058 524  139 
1059 946  3701
1060 7519 4693
1061 9800 1432
1062 9705 9141
1063 6336 7658
1064 582  6503
1065 6409 4547
1066 5847 5320
1067 1614 6002
1068 1674 3106
1069 2356 9720
1070 7550 7522
1071 6207 5868
1072 2532 4191
1073 3632 7815
1074 4631 2888
1075 936  1641
1076 9020 3074
1077 5914 4469
1078 6346 3397
1079 6431 9254
1080 4817 6579
1081 6642 5325
1082 4820 4688
1083 8585 173 
1084 1520 9904
1085 9266 5763
1086 2773 8898
1087 9854 7761
1088 7840 9712
1089 4238 3394
1090 476  5521
1091 979  1629
1092 7980 82  
1093 3580 7642
1094 3959 1325
1095 6552 5940
1096 2352 9925
1097 9735 7742
1098 9461 8330
1099 4587 5806
1100 6700 5675
1101 4041 9720
1102 4952 8747
1103 5099 9456
1104 4663 292 
1105 6900 3032
1106 1269 8418
1107 5247 5815
1108 6198 4188
1109 6893 726 
1110 1070 273 
1111 3278 3108
1112 6340 6545
1113 8525 2108
1114 9323 5146
1115 5933 7026
1116 8456 6226
1117 1046 6226
1118 5151 3198
1119 3744 4611
1120 2347 7955
1121 4574 8379
1122 5482 8286
1123 5326 5797
1124 6248 5772
1125 2329 9285
1126 8881 9182
1127 2949 1782
1128 1514 7369
1129 3608 8340
1130 4691 3624
1131 1732 1739
1132 5100 5428
1133 6256 5669
1134 4779 7900
1135 3389 2637
1136 7198 4653
1137 2567 2921
1138 1758 7974
1139 7209 7253
1140 1859 4970
1141 5934 3300
1142 7769 6752
1143 5293 9406
1144 6151 6548
1145 880  433 
1146 2403 3436
1147 9024 8500
1148 6951 7270
1149 6222 438 
1150 9489 9199
1151 6751 4189
1152 8316 4380
1153 8198 4653
1154 6446 5484
1155 1424 148 
1156 1421 2388
1157 2409 3955
1158 9102 9943
1159 3265 7646
1160 6804 3405
1161 8568 4851
1162 944  8382
1163 5646 6561
1164 9966 7284
1165 8744 6532
1166 8483 812 
1167 9556 5290
1168 9195 8858
1169 1311 2523
1170 3875 5532
1171 7558 8046
1172 5796 5287
1173 7203 844 
1174 5283 6833
1175 4535 6759
1176 7185 4882
1177 6437 1353
1178 8271 344 
1179 1788 7751
1180 9888 7688
1181 8628 730 
1182 6836 2968
1183 937  5731
1184 4117 3517
1185 6457 4833
1186 2440 977 
1187 5192 4634
1188 9893 9053
1189 3929 9279
1190 7352 785 
1191 1123 9642
1192 3158 3706
1193 9334 8977
1194 5893 7961
1195 4062 9745
1196 3307 7265
1197 3527 595 
1198 4262 7984
1199 6800 2151
1200 8952 5670
1201 9144 1753
1202 4525 2567
1203 3944 2673
1204 6343 8256
1205 8393 4117
1206 8714 7725
1207 4188 298 
1208 8356 4207
1209 7575 4361
1210 3040 4958
1211 4350 4026
1212 5227 164 
1213 9576 821 
1214 6801 6915
1215 9292 9982
1216 3200 3620
1217 5643 1620
1218 6799 506 
1219 7653 7716
1220 3036 1302
1221 2180 2390
1222 9915 3996
1223 6488 7466
1224 5586 6573
1225 3275 828 
1226 3062 1728
1227 2557 9779
1228 8925 5463
1229 6626 514 
1230 9899 1855
1231 6643 4901
1232 8626 9502
1233 9943 6119
1234 622  8680
1235 8612 8743
1236 6633 5205
1237 2720 5740
1238 4754 3389
1239 6051 1907
1240 4203 6928
1241 2902 6371
1242 5405 978 
1243 581  5509
1244 2997 9630
1245 5951 8364
1246 7244 6545
1247 5291 2299
1248 1844 5353
1249 508  1102
1250 7679 1566
1251 4834 7758
1252 3774 6491
1253 937  7631
1254 8248 5900
1255 7441 8923
1256 46   7185
1257 3135 5341
1258 8354 4201
1259 3952 639 
1260 1824 7219
1261 922  3679
1262 6006 4819
1263 3822 1172
1264 2635 8691
1265 3709 8055
1266 7141 6427
1267 5883 8564
1268 1189 805 
1269 6774 370 
1270 9438 7832
1271 7841 396 
1272 5829 8556
1273 9870 4952
1274 8230 9845
1275 2639 1084
1276 2628 8908
1277 4591 4078
1278 7725 3319
1279 8646 2342
1280 8453 742 
1281 2600 2123
1282 9919 8717
1283 8136 4934
1284 8497 5486
1285 4871 1934
1286 8502 2320
1287 6015 4940
1288 3859 7759
1289 7316 6630
1290 5299 7776
1291 8581 6659
1292 2372 1801
1293 3190 81  
1294 7540 7398
1295 8109 6953
1296 6194 5902
1297 6109 3458
1298 3802 3953
1299 517  2177
1300 5343 94  
1301 3611 1609
1302 6673 6084
1303 94   7643
1304 3267 9228
1305 2504 3689
1306 8052 9057
1307 608  9997
1308 1711 7753
1309 7293 142 
1310 4826 6458
1311 2651 226 
1312 682  4982
1313 8778 7742
1314 9002 9159
1315 3382 7180
1316 4825 6387
1317 5331 2628
1318 9776 1940
1319 1644 9610
1320 7197 8122
1321 2864 1367
1322 9093 1395
1323 617  989 
1324 4723 505 
1325 4905 3076
1326 5748 156 
1327 9092 9625
1328 5699 3684
1329 9419 8652
1330 2041 1834
1331 4412 5310
1332 5521 5821
1333 9181 493 
1334 1299 6675
1335 3250 5370
1336 8829 2392
1337 5529 2607
1338 7887 270 
1339 9927 9719
1340 6627 5861
1341 3271 724 
1342 8741 8103
1343 8195 5828
1344 1679 5344
1345 5560 8215
1346 5896 1818
1347 2859 8580
1348 1986 1625
1349 3940 2816
1350 3403 4489
1351 3259 1738
1352 8499 1590
1353 8973 2601
1354 3485 6532
1355 7747 98  
1356 1967 7385
1357 9855 5843
1358 374  2703
1359 7845 7545
1360 5754 7838
1361 4791 2029
1362 3212 7926
1363 5187 7276
1364 2937 2555
1365 5452 8022
1366 3137 2050
1367 213  7638
1368 9017 1093
1369 626  1381
1370 2454 268 
1371 6946 4279
1372 4125 5206
1373 5807 1148
1374 504  9843
1375 8591 6136
1376 3366 8647
1377 4061 4650
1378 2824 319 
1379 8446 2507
1380 8830 5226
1381 5837 7571
1382 9936 8723
1383 8579 5905
1384 744  3770
1385 7476 1006
1386 3854 60  
1387 4477 7833
1388 9753 2198
1389 1671 6772
1390 714  8357
1391 483  2037
1392 4920 4909
1393 7252 4563
1394 7569 7671
1395 3198 2131
1396 4197 8603
1397 9904 1945
1398 1107 3540
1399 9651 6251
1400 2009 8343
1401 9936 522 
1402 4377 4539
1403 3937 9929
1404 7329 5048
1405 4851 6332
1406 7768 8434
1407 5634 6353
1408 4334 4720
1409 478  628 
1410 5620 6687
1411 9517 5671
1412 8707 6233
1413 2394 9825
1414 4410 7034
1415 6729 9199
1416 3848 4501
1417 7914 7378
1418 2681 5115
1419 74   5243
1420 5717 8319
1421 7207 3892
1422 1648 8070
1423 7012 1884
1424 914  1009
1425 1960 7753
1426 8852 3484
1427 8539 9469
1428 4795 4407
1429 4828 8336
1430 4812 762 
1431 8232 9224
1432 7226 3696
1433 1685 3955
1434 5783 5715
1435 2768 9067
1436 8849 1640
1437 6059 6658
1438 5109 2462
1439 5998 9955
1440 5931 8934
1441 1735 8681
1442 4092 2968
1443 9152 7952
1444 8635 7006
1445 4435 4429
1446 539  7870
1447 3985 7340
1448 8370 9973
1449 8832 2495
1450 3298 9691
1451 9717 1304
1452 6149 4830
1453 9587 2559
1454 7238 8970
1455 2119 809 
1456 7430 4932
1457 3770 9335
1458 2843 9739
1459 7158 1048
1460 7085 5702
1461 9592 3114
1462 25   8400
1463 2371 9068
1464 6147 1206
1465 1408 8883
1466 398  646 
1467 8967 3545
1468 8776 4499
1469 7165 4675
1470 8777 8390
1471 5092 9246
1472 7426 8934
1473 9423 4181
1474 9844 3134
1475 2817 559 
1476 2149 5172
1477 2766 7930
1478 5235 6111
1479 5646 9407
1480 4860 957 
1481 6755 5152
1482 5577 9558
1483 528  1564
1484 27   9008
1485 2815 5588
1486 883  9687
1487 8425 2144
1488 4400 3745
1489 8387 8231
1490 8576 289 
1491 7943 4984
1492 6305 1285
1493 2977 4101
1494 6998 6056
1495 972  5943
1496 7060 6798
1497 1414 7886
1498 92   9188
1499 430  1167
1500 7851 1486
1501 6409 7000
1502 1017 3903
1503 7234 9046
1504 4604 6171
1505 1870 841 
1506 1949 2362
1507 4328 1082
1508 5604 4477
1509 5697 8665
1510 8611 5814
1511 4946 2402
1512 8229 9432
1513 8459 7005
1514 5874 262 
1515 6248 5373
1516 8945 4076
1517 3121 5648
1518 8295 962 
1519 5993 7104
1520 7026 2947
1521 4456 3885
1522 3103 8738
1523 5343 3108
1524 7222 6956
1525 939  1161
1526 1596 2293
1527 4922 3460
1528 3746 6178
1529 7547 2789
1530 8983 786 
1531 2947 6062
1532 6520 4926
1533 7784 9155
1534 3715 8258
1535 3961 7015
1536 2693 1555
1537 8131 3662
1538 8664 351 
1539 8510 6831
1540 6841 5191
1541 6730 6610
1542 246  4274
1543 8453 7927
1544 202  5731
1545 2335 8543
1546 2966 1270
1547 3572 6869
1548 8884 3197
1549 5051 561 
1550 1950 679 
1551 8624 5543
1552 3536 3217
1553 359  3104
1554 9771 3204
1555 2746 9472
1556 6986 89  
1557 3733 7529
1558 640  2335
1559 9518 7214
1560 9379 7663
1561 5213 9330
1562 9767 3853
1563 1709 6714
1564 4773 2223
1565 6061 618 
1566 665  7734
1567 7174 3049
1568 7999 3186
1569 7967 7923
1570 1016 8869
1571 8765 975 
1572 577  7220
1573 7184 8741
1574 1831 6625
1575 6404 5448
1576 3983 6379
1577 7769 8608
1578 6556 9401
1579 5846 7925
1580 3930 3343
1581 5321 3258
1582 7566 1828
1583 3722 9958
1584 9281 7003
1585 9797 3443
1586 4931 927 
1587 7753 7563
1588 5484 2865
1589 5903 3815
1590 9689 7137
1591 4029 2926
1592 9580 9130
1593 3664 8601
1594 5392 9649
1595 1962 3344
1596 3570 2552
1597 4195 1077
1598 513  8562
1599 9917 5443
1600 3241 3949
1601 8624 8907
1602 5198 4677
1603 7552 2259
1604 1935 8191
1605 8798 4008
1606 1921 6370
1607 3444 3162
1608 7323 7514
1609 3277 8898
1610 9826 1301
1611 7091 5750
1612 7844 3992
1613 867  5946
1614 4679 8878
1615 725  8731
1616 3391 8492
1617 1082 2246
1618 511  4960
1619 8336 1575
1620 2584 3866
1621 3492 8366
1622 9901 6321
1623 6130 9077
1624 935  2775
1625 7470 2815
1626 5864 3714
1627 5660 4503
1628 1931 67  
1629 9910 3260
1630 2026 3574
1631 8394 1110
1632 4462 1808
1633 5260 3675
1634 3280 1512
1635 1595 2291
1636 4141 8976
1637 2475 2100
1638 5723 6149
1639 4483 9123
1640 5269 1282
1641 6445 4485
1642 1230 5978
1643 9472 2025
1644 6627 5019
1645 1997 9539
1646 6785 7674
1647 3909 504 
1648 6786 9462
1649 2795 8571
1650 1226 8477
1651 8994 1659
1652 679  878 
1653 7408 9899
1654 2329 3163
1655 5222 7223
1656 5330 7977
1657 1628 1062
1658 376  2334
1659 982  6776
1660 9007 7456
1661 4211 5124
1662 8101 602 
1663 5774 6024
1664 167  7726
1665 4061 9308
1666 1648 9835
1667 4786 9925
1668 7132 2361
1669 2213 8792
1670 6658 9024
1671 4348 7898
1672 5584 3623
1673 2476 3860
1674 506  5792
1675 1063 2215
1676 817  6092
1677 1106 9151
1678 4440 256 
1679 5768 8389
1680 4700 678 
1681 6685 6053
1682 4084 8506
1683 9286 2098
1684 4493 2223
1685 1425 7838
1686 392  5216
1687 2091 3292
1688 9952 8719
1689 7776 8216
1690 904  125 
1691 5874 1916
1692 213  5354
1693 273  5882
1694 2310 4783
1695 3426 4476
1696 7360 8244
1697 3862 2501
1698 8296 7441
1699 3549 1647
1700 8565 551 
1701 681  15  
1702 5062 2763
1703 2125 2553
1704 1326 9592
1705 6659 6370
1706 890  9659
1707 6896 4202
1708 2495 5193
1709 8065 4677
1710 9401 5467
1711 1965 4168
1712 5653 6919
1713 7806 4550
1714 4348 2264
1715 6507 8263
1716 1483 4356
1717 6933 1125
1718 6392 5836
1719 4410 5447
1720 5806 9833
1721 7481 305 
1722 1843 2630
1723 8264 904 
1724 4172 5232
1725 9081 5346
1726 9700 1441
1727 7598 1611
1728 8781 4246
1729 5222 2707
1730 8730 4724
1731 820  1496
1732 7414 4059
1733 2909 5707
1734 3379 5856
1735 8769 6348
1736 2917 5874
1737 6771 9282
1738 802  6320
1739 878  9578
1740 5213 3079
1741 7245 3277
1742 2040 2300
1743 5289 8322
1744 2878 1077
1745 5771 4424
1746 8518 2719
1747 1699 5094
1748 1343 2590
1749 7407 9584
1750 5046 4783
1751 3817 7177
1752 5141 8895
1753 8744 5681
1754 6522 6640
1755 5179 4124
1756 9244 5990
1757 5388 713 
1758 7023 7001
1759 1238 3241
1760 6620 1088
1761 6827 498 
1762 6384 7507
1763 1735 9627
1764 8103 3288
1765 1415 4222
1766 4159 1534
1767 1887 5313
1768 1269 4655
1769 2618 8507
1770 1283 6565
1771 6420 6413
1772 4340 6192
1773 9988 3912
1774 4699 7896
1775 1310 5865
1776 54   8773
1777 6329 1262
1778 3108 8758
1779 907  50  
1780 7967 3777
1781 964  9472
1782 8536 6365
1783 5651 1980
1784 8393 9505
1785 5548 2508
1786 9243 5209
1787 3801 9518
1788 1072 8526
1789 7799 5552
1790 3830 1848
1791 6544 8680
1792 5389 2597
1793 1818 333 
1794 1082 6829
1795 3974 4549
1796 5801 6651
1797 4971 6916
1798 9125 8818
1799 301  6567
1800 5278 9330
1801 3066 2798
1802 1051 3188
1803 4359 2689
1804 7998 7703
1805 1374 8427
1806 7112 6921
1807 3639 762 
1808 6072 3713
1809 3001 2326
1810 5371 8858
1811 596  609 
1812 1614 6211
1813 5467 9398
1814 788  4858
1815 1341 5074
1816 3227 7794
1817 6682 4285
1818 1210 6908
1819 7981 102 
1820 4221 7479
1821 5624 2221
1822 2052 3849
1823 3462 2241
1824 7446 5957
1825 5100 3141
1826 5084 5263
1827 4697 2306
1828 9134 2856
1829 6257 2477
1830 5072 1316
1831 2164 1205
1832 4055 6417
1833 4338 7342
1834 340  4321
1835 2491 3091
1836 9090 4707
1837 1962 9946
1838 3991 5517
1839 1744 7826
1840 4353 6805
1841 3941 2795
1842 2127 5746
1843 4283 2846
1844 7101 441 
1845 7495 8898
1846 8391 1390
1847 3066 9825
1848 429  4016
1849 6031 9383
1850 709  4544
1851 4958 4677
1852 5318 3633
1853 9504 8445
1854 8359 4462
1855 555  1912
1856 6811 1399
1857 4709 1328
1858 7588 7813
1859 8058 1599
1860 7441 6341
1861 6982 2279
1862 1916 2001
1863 4981 4896
1864 7802 5379
1865 6381 2289
1866 4544 80  
1867 7699 8766
1868 2913 9250
1869 5514 8456
1870 6726 7059
1871 4356 6291
1872 3570 2363
1873 9784 1412
1874 2492 825 
1875 6343 4911
1876 5314 6645
1877 4153 6298
1878 279  8885
1879 379  6042
1880 1741 5858
1881 8830 1271
1882 9160 8714
1883 2740 6761
1884 8806 5999
1885 2129 7377
1886 727  3026
1887 6894 1660
1888 3303 2939
1889 7325 7433
1890 7315 44  
1891 7703 4530
1892 130  7206
1893 1923 505 
1894 7597 4462
1895 1652 7199
1896 1463 6024
1897 3467 7470
1898 3514 5904
1899 9089 8352
1900 6929 59  
1901 9222 1807
1902 885  9528
1903 5603 7886
1904 207  9004
1905 5176 4551
1906 4052 5891
1907 8179 7952
1908 5590 8304
1909 4215 2595
1910 393  8735
1911 7385 5503
1912 5534 6781
1913 431  6955
1914 8709 1391
1915 8808 8187
1916 7268 1074
1917 2295 9846
1918 6623 6192
1919 2602 3225
1920 7399 196 
1921 771  3300
1922 8767 7228
1923 6774 8963
1924 2510 7345
1925 3424 8245
1926 3524 4307
1927 7015 8214
1928 919  5766
1929 9550 2449
1930 5013 6357
1931 17   3836
1932 5919 2674
1933 3442 6220
1934 3317 9404
1935 7293 9269
1936 8613 7036
1937 4132 3466
1938 7535 440 
1939 4703 7657
1940 5292 8952
1941 9070 6700
1942 6876 7170
1943 4557 764 
1944 8291 3795
1945 6398 3134
1946 4259 9093
1947 7843 162 
1948 8145 9089
1949 4831 6618
1950 5469 8843
1951 6743 1583
1952 2112 4298
1953 185  6914
1954 2599 6710
1955 7764 3131
1956 5143 8895
1957 3918 69  
1958 2606 1421
1959 6517 5930
1960 1516 3836
1961 4857 1334
1962 9162 8578
1963 3328 5467
1964 4894 4680
1965 291  316 
1966 5820 3822
1967 9902 4349
1968 1301 2030
1969 127  7261
1970 3338 5621
1971 5856 1705
1972 3294 7495
1973 4331 7879
1974 464  3742
1975 5906 677 
1976 6547 4433
1977 6483 7035
1978 813  1382
1979 9792 3973
1980 5151 7807
1981 9090 455 
1982 2157 3082
1983 3003 8122
1984 1071 1493
1985 6904 9541
1986 7248 8161
1987 6981 2140
1988 1165 1153
1989 2434 2209
1990 9320 9225
1991 7709 8790
1992 4378 3400
1993 9862 8497
1994 4159 9983
1995 2251 7677
1996 3201 487 
1997 5553 376 
1998 3892 9385
1999 263  3598
2000 1502 6721
2001 9212 612 
2002 4082 3148
2003 3717 4625
2004 2672 6327
2005 7825 6228
2006 6390 9159
2007 1316 1749
2008 5237 4625
2009 465  3322
2010 5150 9075
2011 3767 5489
2012 5732 4399
2013 1842 2500
2014 4862 3677
2015 7773 2797
2016 1595 9931
2017 1599 7584
2018 7575 4967
2019 5694 5110
2020 4184 6581
2021 2472 5882
2022 8115 9716
2023 5439 353 
2024 3061 256 
2025 1324 8095
2026 2466 2887
2027 1629 9671
2028 5257 4867
2029 6079 9494
2030 9108 5319
2031 5097 7429
2032 6154 5006
2033 200  2589
2034 1133 7463
2035 1246 4702
2036 7993 2632
2037 7950 2923
2038 4739 5007
2039 285  6300
2040 7687 2828
2041 8825 6188
2042 5653 7433
2043 4406 4843
2044 6057 7533
2045 1935 2358
2046 5181 9425
2047 1034 9930
2048 3832 2990
2049 9684 6473
2050 209  9805
2051 5973 295 
2052 5105 4360
2053 3048 9430
2054 7933 9248
2055 7329 2671
2056 5109 7595
2057 3504 1300
2058 7960 331 
2059 8847 3288
2060 2757 4209
2061 2446 7917
2062 5392 6989
2063 3060 654 
2064 4722 3563
2065 3542 3614
2066 5903 9836
2067 9608 4726
2068 2484 4166
2069 4862 6585
2070 597  2002
2071 5341 4688
2072 1097 2106
2073 5637 619 
2074 199  4839
2075 8990 381 
2076 9197 7123
2077 9446 8721
2078 2419 3809
2079 3369 155 
2080 2184 3147
2081 943  7488
2082 1142 3088
2083 9894 3996
2084 1129 5621
2085 8924 9687
2086 3352 2892
2087 9435 34  
2088 7884 9961
2089 9057 8803
2090 9932 2821
2091 8026 3071
2092 1754 1642
2093 5023 377 
2094 4634 5261
2095 5464 4767
2096 5469 7110
2097 5232 99  
2098 88   290 
2099 655  1618
2100 1907 1357
2101 2252 381 
2102 8079 5617
2103 4330 8767
2104 8759 7208
2105 6884 7565
2106 2775 9411
2107 1435 7528
2108 7182 9410
2109 5415 8506
2110 7670 3182
2111 5112 9805
2112 4781 3252
2113 5671 4343
2114 8127 9700
2115 3830 5004
2116 5374 2377
2117 9998 1010
2118 9974 3898
2119 8476 3375
2120 2953 2719
2121 5440 4099
2122 764  8172
2123 7599 7248
2124 7513 3824
2125 2807 9622
2126 2438 864 
2127 9891 616 
2128 8266 5217
2129 4881 4333
2130 5959 8573
2131 346  3771
2132 1502 7543
2133 2324 8190
2134 9488 5660
2135 2626 7313
2136 35   1134
2137 5706 9093
2138 1964 2843
2139 7461 4972
2140 1139 9368
2141 3206 9731
2142 2801 4109
2143 3615 2942
2144 9483 89  
2145 7466 9347
2146 1755 3835
2147 8015 9945
2148 400  1891
2149 2623 3057
2150 6739 889 
2151 2425 6523
2152 3046 2511
2153 5048 8030
2154 1386 1348
2155 4360 9300
2156 9192 7646
2157 1791 8953
2158 6371 1403
2159 8681 876 
2160 3788 6297
2161 3753 4285
2162 2384 2766
2163 9917 4836
2164 4991 3303
2165 9175 6442
2166 3430 2218
2167 8559 6282
2168 7970 32  
2169 4355 8039
2170 6938 4781
2171 9570 5798
2172 4480 8949
2173 4265 9871
2174 7312 1865
2175 7560 3723
2176 4009 6186
2177 8007 4836
2178 5533 8335
2179 568  6697
2180 3819 7625
2181 4332 4741
2182 8286 1483
2183 4832 6853
2184 6809 6638
2185 9695 2325
2186 9796 5899
2187 3417 7216
2188 1542 1543
2189 9280 6782
2190 4506 3378
2191 2188 8846
2192 8018 6828
2193 2664 7820
2194 503  1832
2195 7564 1945
2196 2768 5755
2197 3238 2128
2198 9596 4083
2199 4436 185 
2200 4461 410 
2201 5696 6450
2202 4505 448 
2203 454  866 
2204 4314 5777
2205 2223 9434
2206 4654 938 
2207 1053 2451
2208 1970 1073
2209 7120 860 
2210 8514 86  
2211 100  8189
2212 7790 8485
2213 9417 3764
2214 4637 7230
2215 7450 4855
2216 8338 8782
2217 6707 4793
2218 5879 9857
2219 8441 3784
2220 6368 2738
2221 7484 9792
2222 7505 1018
2223 7091 4417
2224 8454 1263
2225 7395 4367
2226 3043 3799
2227 3122 8189
2228 2425 8284
2229 8809 4584
2230 8594 7615
2231 6421 3436
2232 7117 4351
2233 1850 7244
2234 1255 7930
2235 166  4252
2236 6600 4320
2237 7522 5739
2238 7719 391 
2239 453  8568
2240 9395 7203
2241 2977 8060
2242 8270 4662
2243 9041 9373
2244 8813 8731
2245 9790 8401
2246 257  4639
2247 4910 9977
2248 5307 1516
2249 9176 9548
2250 1744 9369
2251 1714 8513
2252 1147 9558
2253 3100 3730
2254 8136 9590
2255 5667 7029
2256 5052 8556
2257 4157 133 
2258 5067 4653
2259 2678 8195
2260 3865 6039
2261 7630 7667
2262 1773 8622
2263 9287 8717
2264 756  3433
2265 6645 7722
2266 6305 4628
2267 6996 8720
2268 1075 5608
2269 7700 7093
2270 4226 7221
2271 6315 119 
2272 9478 6701
2273 2345 1471
2274 3517 4539
2275 1554 7149
2276 2462 826 
2277 9162 6372
2278 9297 267 
2279 545  6514
2280 4024 6967
2281 8547 3056
2282 8467 1387
2283 6683 8001
2284 6696 9901
2285 1316 399 
2286 5297 7746
2287 3412 2632
2288 3841 7837
2289 4500 2351
2290 8478 2436
2291 4410 2477
2292 4936 5561
2293 7735 9348
2294 7106 9607
2295 8720 7460
2296 817  9918
2297 7295 2447
2298 9735 7487
2299 6538 9530
2300 1818 5042
2301 2608 4625
2302 8457 2964
2303 2588 1015
2304 2677 3528
2305 6256 183 
2306 8943 3370
2307 1274 8069
2308 6084 56  
2309 5160 5510
2310 9028 5204
2311 2587 9238
2312 608  5214
2313 6000 1809
2314 1804 2786
2315 79   1271
2316 5159 5351
2317 5038 961 
2318 6848 5712
2319 7473 5219
2320 6810 6944
2321 1769 5130
2322 6017 1930
2323 2590 2835
2324 6163 1579
2325 4098 390 
2326 5558 2737
2327 3651 6750
2328 9111 873 
2329 229  1146
2330 5088 2770
2331 1563 8301
2332 2127 9355
2333 2707 5487
2334 9065 4560
2335 8980 2099
2336 8555 3951
2337 3905 2941
2338 7735 6917
2339 9791 9607
2340 9517 9380
2341 3695 6689
2342 6141 823 
2343 6520 9133
2344 7827 7139
2345 8449 3083
2346 8004 2889
2347 8550 9064
2348 8977 1993
2349 4278 5199
2350 4182 542 
2351 6214 3396
2352 144  5003
2353 2451 3689
2354 1616 4036
2355 3751 3277
2356 6530 866 
2357 3954 229 
2358 9031 3078
2359 5668 6672
2360 955  360 
2361 2388 8558
2362 4275 2448
2363 3120 2312
2364 6267 2329
2365 221  9881
2366 1137 4527
2367 3592 3585
2368 8241 4756
2369 7267 1906
2370 276  5169
2371 9269 2829
2372 2543 602 
2373 3607 3016
2374 6879 1122
2375 6820 6132
2376 2213 4023
2377 4918 2637
2378 7267 6622
2379 7526 94  
2380 8799 4273
2381 1157 6511
2382 5097 1298
2383 4966 4580
2384 1865 4936
2385 3810 2168
2386 946  1900
2387 1182 7139
2388 4397 7013
2389 6645 7428
2390 1932 8337
2391 2702 2877
2392 5366 2531
2393 6020 3210
2394 9216 8148
2395 1703 2840
2396 7054 6040
2397 699  3618
2398 8129 7457
2399 1511 215 
2400 8903 9743
2401 6721 7387
2402 3053 7269
2403 4030 2236
2404 8951 1337
2405 5964 1173
2406 5547 683 
2407 6822 7261
2408 4235 1443
2409 6543 6377
2410 465  9786
2411 2325 6567
2412 9550 6402
2413 4597 6599
2414 301  1390
2415 5721 8825
2416 1846 5608
2417 7510 6360
2418 4826 2529
2419 778  5610
2420 6114 7777
2421 6432 7600
2422 3202 5829
2423 4240 2835
2424 5903 3162
2425 3386 6258
2426 6929 9344
2427 8874 9286
2428 1502 1047
2429 9928 2058
2430 4308 8395
2431 2089 7544
2432 4525 6335
2433 7940 8299
2434 7821 5270
2435 1642 8990
2436 2465 9996
2437 210  1944
2438 2674 3333
2439 1200 5175
2440 527  8157
2441 7639 5216
2442 7774 4468
2443 4039 4740
2444 608  7429
2445 6424 1663
2446 7970 2780
2447 8184 7683
2448 3010 374 
2449 3563 1259
2450 3341 1379
2451 9984 4880
2452 1918 5055
2453 4596 649 
2454 4605 7189
2455 9730 9613
2456 265  3422
2457 9221 5546
2458 3976 343 
2459 1138 7566
2460 9531 9459
2461 7498 873 
2462 2697 2145
2463 2889 8232
2464 2953 8401
2465 7857 9082
2466 3107 1095
2467 3280 625 
2468 9011 9631
2469 2641 8934
2470 8327 5569
2471 4499 5841
2472 9263 4683
2473 9255 9299
2474 2056 7336
2475 7494 151 
2476 2320 1882
2477 3941 1013
2478 5453 5865
2479 9416 9785
2480 2230 344 
2481 2746 1303
2482 1248 7021
2483 2480 4051
2484 5560 3615
2485 6669 613 
2486 4654 5231
2487 6865 1018
2488 3372 8597
2489 1967 2139
2490 7478 9145
2491 6280 5004
2492 2192 7081
2493 2729 3715
2494 8124 7413
2495 6880 1608
2496 3348 9037
2497 722  6775
2498 4481 3989
2499 9148 8393
2500 3504 2402
2501 3470 2023
2502 1011 2519
2503 8597 2343
2504 5738 7318
2505 9184 3132
2506 3331 1100
2507 5555 7357
2508 7444 6708
2509 1834 5909
2510 6475 219 
2511 9299 6507
2512 7817 2183
2513 2986 2462
2514 4440 9906
2515 1576 171 
2516 1490 1749
2517 4290 7834
2518 2611 5525
2519 4125 947 
2520 5907 8848
2521 4748 7039
2522 6045 1325
2523 4039 5761
2524 6627 1440
2525 5294 4134
2526 8698 4319
2527 8169 1252
2528 3123 7712
2529 714  8829
2530 4607 5215
2531 8866 7290
2532 489  4283
2533 1845 1953
2534 5601 1421
2535 377  8645
2536 9498 318 
2537 2538 451 
2538 5568 9532
2539 8235 4807
2540 1480 3593
2541 6521 7905
2542 7735 7276
2543 7316 2994
2544 4787 5525
2545 5690 7374
2546 6995 6173
2547 4187 4920
2548 6322 8472
2549 5576 3466
2550 7131 2477
2551 9121 2792
2552 7708 5434
2553 370  8906
2554 7185 4210
2555 1013 9966
2556 4571 7130
2557 8521 6581
2558 2814 2420
2559 8296 3040
2560 4226 2750
2561 653  5586
2562 6876 9505
2563 7622 5718
2564 6811 9244
2565 5427 5173
2566 9242 1024
2567 1532 931 
2568 3194 4962
2569 7596 2244
2570 7940 565 
2571 9582 4872
2572 6217 1511
2573 5527 1299
2574 6844 7455
2575 1239 4776
2576 550  2723
2577 5166 276 
2578 6982 9040
2579 158  6744
2580 4754 3818
2581 6299 6518
2582 4237 1260
2583 3781 3882
2584 7009 7354
2585 8793 8248
2586 1916 6070
2587 1183 3354
2588 5429 6147
2589 6829 8426
2590 2796 9654
2591 5994 4711
2592 1737 7125
2593 3305 2819
2594 2678 8733
2595 3276 8028
2596 8029 9725
2597 2916 7430
2598 841  9071
2599 913  8444
2600 6225 5277
2601 1950 9160
2602 8671 7990
2603 9137 825 
2604 2307 5523
2605 3258 3217
2606 4051 8020
2607 8832 7805
2608 3286 9152
2609 8982 3747
2610 2755 1145
2611 7157 1498
2612 2656 654 
2613 1004 396 
2614 9476 4568
2615 7746 3571
2616 7335 3098
2617 7306 6929
2618 1108 6996
2619 8431 4864
2620 2718 4412
2621 8636 4705
2622 2950 8429
2623 713  4723
2624 7680 3232
2625 8725 4803
2626 8219 6781
2627 1768 6104
2628 7798 4728
2629 37   376 
2630 7560 2356
2631 3867 4263
2632 3745 3955
2633 5302 5832
2634 865  2036
2635 2423 3730
2636 8948 9859
2637 4208 4160
2638 3212 9169
2639 8014 2499
2640 5546 1257
2641 7193 760 
2642 9310 5367
2643 6797 3014
2644 3773 5528
2645 4191 7939
2646 6930 85  
2647 6535 5405
2648 4185 3923
2649 137  5814
2650 1858 8564
2651 3611 664 
2652 6400 6425
2653 9036 7692
2654 5433 1953
2655 831  153 
2656 1755 1353
2657 4522 8607
2658 518  7264
2659 4202 4879
2660 9124 726 
2661 2754 8632
2662 2412 4906
2663 6096 8824
2664 1199 1363
2665 2005 6419
2666 2710 984 
2667 5468 1667
2668 9593 6477
2669 8338 4349
2670 9103 2269
2671 9125 1117
2672 1133 9986
2673 8878 9264
2674 2499 2720
2675 6794 3053
2676 5963 797 
2677 3053 6269
2678 2689 2738
2679 5468 1223
2680 7600 39  
2681 725  2521
2682 3398 6052
2683 1136 2263
2684 9010 9136
2685 272  3564
2686 1487 6107
2687 2178 7486
2688 5277 1210
2689 574  3195
2690 8490 2021
2691 1369 9368
2692 6966 1092
2693 9583 4201
2694 6792 2959
2695 1825 1271
2696 9195 5353
2697 6803 2065
2698 2372 3245
2699 9248 5318
2700 9885 665 
2701 1035 1510
2702 3193 5776
2703 8860 4619
2704 9632 5741
2705 7925 3496
2706 1929 2730
2707 6738 656 
2708 4223 8717
2709 257  5491
2710 8573 6328
2711 8190 1028
2712 4457 5304
2713 5060 573 
2714 5418 6600
2715 5333 4719
2716 5166 3269
2717 6587 2777
2718 2353 5954
2719 5696 9835
2720 743  1526
2721 9130 2399
2722 3346 5494
2723 1776 926 
2724 9349 5004
2725 3898 822 
2726 4972 4498
2727 9975 7182
2728 6400 2282
2729 2748 3430
2730 6656 4279
2731 7697 239 
2732 6674 6976
2733 4117 9882
2734 719  3907
2735 6417 1793
2736 5304 1903
2737 8164 8090
2738 759  7120
2739 9428 4824
2740 2079 2857
2741 423  1124
2742 7001 3328
2743 1030 4855
2744 7790 2494
2745 5696 6061
2746 7868 7528
2747 3398 3252
2748 8544 7965
2749 7534 5783
2750 4964 2561
2751 4555 1287
2752 612  1700
2753 1395 4283
2754 5287 6180
2755 6123 9882
2756 3469 4860
2757 6950 5847
2758 3170 854 
2759 9593 8630
2760 9296 4870
2761 5135 7252
2762 8579 5056
2763 1148 8079
2764 7403 2810
2765 2726 1530
2766 1557 7918
2767 7356 8485
2768 3676 8895
2769 9096 8280
2770 8361 5161
2771 2672 5148
2772 5146 7038
2773 3151 4328
2774 1614 5728
2775 2241 7434
2776 8158 7064
2777 5097 1613
2778 7392 1979
2779 6764 1710
2780 5547 8062
2781 2310 1355
2782 4911 3012
2783 7083 8018
2784 388  9631
2785 2894 4520
2786 1428 2458
2787 4618 8753
2788 1729 1901
2789 4501 4009
2790 2002 5478
2791 1422 3296
2792 5832 7013
2793 6248 5871
2794 8991 2277
2795 1190 7043
2796 254  2577
2797 5767 362 
2798 3260 2826
2799 78   8153
2800 1201 8032
2801 8982 4565
2802 9593 4810
2803 1800 1324
2804 4862 1012
2805 8172 3429
2806 230  899 
2807 5171 2018
2808 1319 4521
2809 8888 2237
2810 5930 5316
2811 5631 8794
2812 3342 8160
2813 4687 8693
2814 6682 2787
2815 1273 3034
2816 1355 8087
2817 9663 9497
2818 7034 5514
2819 3403 2887
2820 1802 1428
2821 7108 707 
2822 6652 8992
2823 9609 9176
2824 8212 6870
2825 6358 1681
2826 7319 1492
2827 429  349 
2828 1145 9808
2829 193  8951
2830 7833 1081
2831 2064 1689
2832 8269 6782
2833 292  1117
2834 6795 2367
2835 6668 2055
2836 2000 609 
2837 3337 4083
2838 9844 2542
2839 9735 9326
2840 9284 4873
2841 3442 6532
2842 2463 2562
2843 7862 7585
2844 9549 3083
2845 8190 725 
2846 7010 6634
2847 7870 4638
2848 6201 6786
2849 5662 5019
2850 7704 2781
2851 9466 3624
2852 3170 5871
2853 7282 1539
2854 3384 6321
2855 2245 7761
2856 6770 1007
2857 8744 2917
2858 6830 5885
2859 2499 2307
2860 6842 7141
2861 335  9149
2862 1662 7120
2863 4721 4315
2864 6313 5932
2865 2744 8009
2866 7059 63  
2867 3065 6532
2868 2627 9   
2869 2589 7129
2870 2461 345 
2871 8478 2498
2872 971  4521
2873 2240 4305
2874 6691 8114
2875 2172 7289
2876 8538 4300
2877 7340 6632
2878 9235 434 
2879 2383 1866
2880 1492 8235
2881 2221 7868
2882 380  6764
2883 6162 3550
2884 1837 9461
2885 1644 2806
2886 2687 477 
2887 468  3363
2888 1226 519 
2889 812  4940
2890 8776 4915
2891 7405 5031
2892 9381 9570
2893 2598 9968
2894 2818 2056
2895 2506 8527
2896 2602 6363
2897 7637 7973
2898 9744 9427
2899 327  3222
2900 5315 2638
2901 5415 5123
2902 4360 9783
2903 7552 2036
2904 978  1093
2905 991  9285
2906 5097 3846
2907 4227 6551
2908 3413 1820
2909 2414 7506
2910 3231 2131
2911 9327 7423
2912 7556 8795
2913 4424 7156
2914 4858 3461
2915 7745 5568
2916 9079 6718
2917 741  9119
2918 8830 5728
2919 391  4709
2920 5598 19  
2921 2259 3506
2922 7211 2250
2923 4518 8135
2924 7664 2947
2925 8033 1735
2926 8568 6357
2927 8135 3010
2928 7135 3463
2929 6701 4153
2930 3675 658 
2931 9273 5959
2932 7693 8497
2933 2762 1525
2934 8664 1634
2935 861  6467
2936 4279 2956
2937 791  9113
2938 6685 158 
2939 6032 9502
2940 468  1631
2941 7369 5661
2942 2092 3583
2943 3216 5080
2944 7277 437 
2945 5332 9595
2946 1215 5738
2947 3851 1750
2948 4507 6992
2949 4121 909 
2950 62   4618
2951 3885 3563
2952 1891 726 
2953 4148 2884
2954 6691 3237
2955 4020 2452
2956 9971 7995
2957 2856 4803
2958 7904 2323
2959 6476 1095
2960 1541 551 
2961 1375 7761
2962 7632 3638
2963 5810 6672
2964 8544 3440
2965 2787 1554
2966 7836 9581
2967 4435 4363
2968 717  1016
2969 1637 6836
2970 7788 5776
2971 4714 3197
2972 9627 5044
2973 4697 343 
2974 9717 3257
2975 1882 8494
2976 5300 2217
2977 2645 7014
2978 5780 9847
2979 2749 9874
2980 190  2635
2981 3860 9199
2982 248  255 
2983 308  6076
2984 8066 2673
2985 7495 2234
2986 9564 9866
2987 1197 9658
2988 4384 6793
2989 1573 4840
2990 6091 8711
2991 5858 9478
2992 578  924 
2993 5733 395 
2994 5602 1183
2995 2871 3933
2996 3904 8461
2997 4831 4079
2998 3985 4914
2999 7212 2657
3000 1183 8922
3001 8935 9604
3002 7907 9191
3003 4696 3200
3004 8838 8431
3005 4836 5697
3006 7430 9498
3007 8279 7734
3008 5893 2130
3009 2105 6809
3010 8791 8378
3011 6162 4370
3012 5229 5000
3013 5645 1161
3014 3760 6668
3015 294  36  
3016 3646 7457
3017 823  4415
3018 3037 2462
3019 1842 4933
3020 8278 1509
3021 1858 5935
3022 2499 327 
3023 4502 3659
3024 3325 4592
3025 6884 6866
3026 8786 4794
3027 1360 9876
3028 3943 1724
3029 8914 9512
3030 2540 2659
3031 5523 613 
3032 3812 4832
3033 5673 7842
3034 2215 71  
3035 2152 7452
3036 5990 571 
3037 1823 7956
3038 7305 7231
3039 749  992 
3040 1671 1155
3041 7702 5530
3042 2997 4618
3043 8950 9153
3044 4686 8534
3045 3532 9359
3046 3532 1620
3047 5862 6656
3048 9273 5721
3049 4176 1845
3050 6002 3806
3051 2601 5415
3052 6642 6608
3053 4335 6987
3054 6934 2004
3055 2201 4504
3056 6532 8591
3057 7461 8942
3058 38   8258
3059 7216 1112
3060 5618 5260
3061 8591 3189
3062 1195 6394
3063 4565 8909
3064 6979 4859
3065 3930 9053
3066 7765 6623
3067 2971 5320
3068 1942 7061
3069 1828 6493
3070 9856 8693
3071 3031 3080
3072 8929 1060
3073 7785 9556
3074 7822 1060
3075 146  5156
3076 4861 4096
3077 8807 9730
3078 3574 9420
3079 6000 2333
3080 8436 8990
3081 4182 5031
3082 9282 2840
3083 4580 1599
3084 6818 5619
3085 9788 8733
3086 7131 9203
3087 280  2095
3088 2249 7689
3089 8857 5961
3090 7655 7049
3091 807  1737
3092 2577 6291
3093 8020 1305
3094 7950 3864
3095 3086 2299
3096 1604 652 
3097 4930 4079
3098 8050 5387
3099 9490 5774
3100 5440 8876
3101 9726 1439
3102 2031 7396
3103 222  3940
3104 8162 8083
3105 3942 1096
3106 5896 6250
3107 3984 4143
3108 1737 3640
3109 8887 3557
3110 2722 4938
3111 7884 4395
3112 9760 4611
3113 5608 505 
3114 7262 8513
3115 2739 1702
3116 4179 4228
3117 4579 8371
3118 9296 3027
3119 6378 3997
3120 6221 9270
3121 5699 152 
3122 175  4059
3123 4636 8849
3124 5215 9861
3125 4741 6305
3126 3938 777 
3127 9817 2982
3128 1091 8242
3129 3745 4316
3130 2354 8172
3131 6591 1615
3132 4175 28  
3133 8911 1075
3134 4427 6098
3135 190  2732
3136 9876 4547
3137 8486 9824
3138 4028 3791
3139 6457 3924
3140 2279 4956
3141 2125 2122
3142 8865 6708
3143 6357 4756
3144 4889 2480
3145 1987 4355
3146 3134 5149
3147 9718 8157
3148 3224 6293
3149 392  663 
3150 9308 9616
3151 32   2313
3152 1816 1567
3153 1500 8659
3154 7106 9456
3155 2817 6755
3156 8831 4681
3157 2246 1994
3158 3294 4060
3159 1240 4600
3160 8592 655 
3161 2706 8567
3162 2201 952 
3163 2298 7209
3164 5326 7238
3165 8144 2401
3166 950  7014
3167 1053 859 
3168 8880 3560
3169 2641 4300
3170 3571 1205
3171 1973 5135
3172 2147 4372
3173 3910 1913
3174 7151 9732
3175 266  6973
3176 6013 9692
3177 5372 6943
3178 9827 3688
3179 394  3448
3180 4244 746 
3181 3041 9982
3182 5136 6207
3183 4738 3912
3184 387  4970
3185 3341 3429
3186 5070 7181
3187 7457 6088
3188 2319 851 
3189 3726 7444
3190 2157 2026
3191 5359 2682
3192 524  7777
3193 3005 2856
3194 3644 733 
3195 4872 9653
3196 6487 9070
3197 2616 6817
3198 3152 9329
3199 8411 9089
3200 8014 2105
3201 651  9277
3202 9381 2942
3203 6368 6983
3204 9937 5058
3205 1069 5980
3206 7531 6969
3207 857  7561
3208 1768 8740
3209 9214 3742
3210 2334 8691
3211 9587 6388
3212 1859 9133
3213 8159 3945
3214 4529 1245
3215 3018 18  
3216 7415 5697
3217 4010 8032
3218 7525 6546
3219 2536 6581
3220 9403 9579
3221 7984 4116
3222 4116 4113
3223 6576 2386
3224 3033 6413
3225 7632 1750
3226 2264 9270
3227 9768 8998
3228 1370 2323
3229 8494 8042
3230 8986 794 
3231 8239 9699
3232 8294 3487
3233 8571 8755
3234 8250 3601
3235 5049 1404
3236 8191 2730
3237 238  7979
3238 706  5874
3239 7740 2058
3240 6228 1884
3241 956  121 
3242 3093 5788
3243 5931 9814
3244 8634 809 
3245 7356 6196
3246 9452 9668
3247 3676 7566
3248 9571 5993
3249 6483 1527
3250 2209 7573
3251 5253 7017
3252 9092 426 
3253 5202 6787
3254 8239 1783
3255 7543 778 
3256 9920 5934
3257 2344 8372
3258 7417 4922
3259 1939 8842
3260 3372 2006
3261 1226 8777
3262 1682 2068
3263 7615 4774
3264 4765 8284
3265 7390 8303
3266 6958 1850
3267 513  8979
3268 194  5260
3269 4498 7880
3270 8089 4477
3271 2026 4625
3272 6319 153 
3273 2816 5011
3274 5581 6052
3275 66   5221
3276 8319 725 
3277 4685 7468
3278 4658 4355
3279 6010 3424
3280 2542 7385
3281 9325 4187
3282 3604 2828
3283 2532 9513
3284 2826 6480
3285 5772 1255
3286 2087 5752
3287 2322 1252
3288 3442 1076
3289 4962 9136
3290 913  7932
3291 107  4611
3292 4608 6412
3293 9219 6094
3294 7026 1633
3295 8525 5496
3296 6700 113 
3297 7591 6892
3298 7079 5592
3299 831  2902
3300 9447 9648
3301 8688 1945
3302 4337 1019
3303 9608 8930
3304 4297 137 
3305 6901 1187
3306 6633 2777
3307 6013 4496
3308 5129 9946
3309 2587 792 
3310 8650 83  
3311 4321 509 
3312 1813 5514
3313 622  9335
3314 7910 5680
3315 5090 1434
3316 2403 214 
3317 1392 9079
3318 4351 3803
3319 2698 1531
3320 9242 2599
3321 2480 3344
3322 3659 2117
3323 325  5836
3324 9613 9980
3325 2167 3020
3326 6149 4599
3327 9698 955 
3328 8748 9123
3329 7727 209 
3330 6266 3182
3331 7672 8296
3332 8119 523 
3333 5501 6804
3334 9973 4708
3335 1124 317 
3336 9549 9996
3337 2202 8731
3338 9234 6476
3339 6558 4610
3340 2464 2609
3341 4289 179 
3342 7090 3051
3343 7177 3585
3344 4657 8841
3345 8158 1651
3346 4269 9428
3347 1098 7734
3348 3263 7561
3349 4554 4531
3350 9862 5438
3351 7940 3981
3352 2685 5614
3353 6738 5003
3354 4305 9903
3355 5236 9496
3356 5984 2407
3357 6532 7321
3358 5478 1957
3359 958  5094
3360 1075 3570
3361 4346 3086
3362 9131 2891
3363 3808 9492
3364 5763 8605
3365 1793 1716
3366 1394 963 
3367 1068 9575
3368 9842 1607
3369 4030 944 
3370 2846 5797
3371 2748 8653
3372 4687 6227
3373 8075 4271
3374 3043 9777
3375 4882 3051
3376 4689 9600
3377 1176 7760
3378 4118 2760
3379 4791 5662
3380 4663 8209
3381 2217 5923
3382 8385 814 
3383 6050 3448
3384 4707 2545
3385 282  1881
3386 4391 3618
3387 4573 9030
3388 983  9758
3389 2595 3330
3390 254  8416
3391 9561 6616
3392 5155 4065
3393 4960 9804
3394 5055 5548
3395 692  327 
3396 7563 5368
3397 5605 2762
3398 781  3171
3399 5835 8284
3400 6566 6047
3401 6765 1349
3402 2790 1945
3403 6202 7332
3404 5155 6864
3405 2661 1704
3406 4549 4936
3407 4543 3334
3408 2560 6304
3409 3537 993 
3410 5198 5946
3411 8749 2855
3412 6076 9422
3413 6542 6761
3414 1566 1537
3415 842  6287
3416 8535 6331
3417 230  708 
3418 5920 181 
3419 7195 4507
3420 6937 5106
3421 257  3428
3422 4642 3137
3423 5075 3832
3424 3337 5969
3425 5239 3738
3426 9749 2065
3427 6491 3170
3428 7703 9030
3429 729  8210
3430 4165 5362
3431 8910 902 
3432 6548 4122
3433 3859 2450
3434 2610 6318
3435 8572 8084
3436 5980 8558
3437 3599 3844
3438 9014 5451
3439 8528 8077
3440 4537 2857
3441 883  7839
3442 6600 4131
3443 4658 8418
3444 7270 6401
3445 384  6884
3446 3004 653 
3447 7317 8594
3448 3136 4801
3449 329  4608
3450 7066 795 
3451 7144 8566
3452 7455 9870
3453 1102 8025
3454 4001 8386
3455 6227 4914
3456 578  700 
3457 3642 5756
3458 9197 784 
3459 8243 6125
3460 8528 9012
3461 3570 5800
3462 1748 8419
3463 80   5334
3464 9554 7581
3465 2057 7130
3466 3576 4478
3467 2101 1184
3468 3581 7372
3469 739  15  
3470 6599 1635
3471 3017 6912
3472 5816 6640
3473 338  7996
3474 2663 6089
3475 3738 5006
3476 1621 9114
3477 811  6377
3478 5547 8534
3479 6745 9338
3480 1484 2205
3481 758  9921
3482 8598 9377
3483 1824 5877
3484 4262 9447
3485 4359 9761
3486 1736 3521
3487 400  2376
3488 2289 4993
3489 42   6232
3490 4614 1430
3491 9803 8080
3492 9510 2717
3493 2571 5183
3494 681  6947
3495 399  9665
3496 3782 2903
3497 9104 4020
3498 6904 3243
3499 7712 4343
3500 3181 2145
3501 3819 682 
3502 6904 8699
3503 1459 529 
3504 9136 5845
3505 3792 4901
3506 2830 5150
3507 7315 2279
3508 5427 4942
3509 401  4191
3510 703  5846
3511 368  6906
3512 9438 144 
3513 628  1640
3514 6124 1290
3515 9066 4864
3516 3303 3144
3517 2838 9976
3518 452  8293
3519 1722 241 
3520 4744 9232
3521 2129 9361
3522 3813 4516
3523 9907 9532
3524 8279 8503
3525 3834 6728
3526 6964 4882
3527 7701 3047
3528 6204 1708
3529 4211 3572
3530 2859 7463
3531 2584 7283
3532 4416 160 
3533 9519 9812
3534 8800 6023
3535 3108 6076
3536 6655 8762
3537 7598 9356
3538 3270 3504
3539 3402 5545
3540 7204 4810
3541 5643 9700
3542 4230 5990
3543 2815 585 
3544 5713 5693
3545 9815 5750
3546 3075 2058
3547 1009 7038
3548 1343 3409
3549 2778 721 
3550 2947 2704
3551 9740 1941
3552 1347 1059
3553 2290 3439
3554 4398 4882
3555 115  8224
3556 9984 7235
3557 3262 4658
3558 231  6070
3559 9534 1952
3560 5108 6403
3561 771  2516
3562 8097 2441
3563 9070 7296
3564 7463 8541
3565 4029 4453
3566 2924 6504
3567 677  3071
3568 2393 8830
3569 88   1745
3570 5439 2035
3571 8548 1401
3572 6602 6913
3573 2566 5229
3574 9410 3847
3575 4370 5088
3576 4388 6505
3577 8232 7381
3578 9885 8138
3579 2931 7503
3580 6070 8946
3581 6125 1074
3582 8574 2832
3583 8368 8154
3584 5459 3892
3585 3687 8788
3586 447  7347
3587 3053 1413
3588 7077 7502
3589 9030 1922
3590 8802 9538
3591 7690 6370
3592 4351 8636
3593 1158 6493
3594 135  4347
3595 4401 9887
3596 9686 1096
3597 5219 2918
3598 1801 6335
3599 293  6172
3600 5126 2145
3601 6744 8240
3602 8350 9608
3603 3900 7311
3604 6650 6739
3605 943  5275
3606 2790 2180
3607 2913 4698
3608 1349 1197
3609 3209 1130
3610 9756 7375
3611 5427 9677
3612 2247 3892
3613 3762 4880
3614 4691 278 
3615 1974 4106
3616 6416 6379
3617 3313 1148
3618 1373 1982
3619 9827 5544
3620 8266 3227
3621 5788 7201
3622 4478 101 
3623 7076 5758
3624 7289 805 
3625 3995 1260
3626 3054 120 
3627 7250 2844
3628 9083 7813
3629 6836 4050
3630 8248 5631
3631 7635 6266
3632 3226 9790
3633 1794 5455
3634 3889 2267
3635 8944 4679
3636 6445 4779
3637 4402 970 
3638 1769 9187
3639 1477 7512
3640 493  5628
3641 6160 6291
3642 3012 1000
3643 2099 9776
3644 8868 9583
3645 1027 6367
3646 6030 5487
3647 655  6098
3648 966  3628
3649 1858 6906
3650 4857 791 
3651 5691 3918
3652 7134 9230
3653 8881 8061
3654 9805 8624
3655 1131 6008
3656 9956 2623
3657 4094 9906
3658 3713 6239
3659 7918 8132
3660 3727 8350
3661 9209 9614
3662 2858 7194
3663 3722 1399
3664 3814 8844
3665 8406 9308
3666 9102 7624
3667 7099 1973
3668 1050 1215
3669 2999 5091
3670 6377 2365
3671 9825 8082
3672 8219 8382
3673 5179 8494
3674 9204 4587
3675 4793 2764
3676 8723 952 
3677 4073 1284
3678 2161 6135
3679 3773 731 
3680 3074 9914
3681 9753 8669
3682 6500 7955
3683 141  5781
3684 167  1961
3685 5512 9870
3686 6246 1085
3687 1620 6168
3688 6285 1647
3689 9663 6441
3690 4706 9535
3691 7590 7690
3692 1535 7116
3693 1091 2792
3694 9172 9903
3695 4235 1425
3696 4024 262 
3697 6936 7643
3698 7420 2966
3699 8103 5593
3700 1715 5164
3701 8526 2228
3702 9660 6539
3703 4318 7657
3704 7172 36  
3705 8488 9428
3706 4849 9112
3707 9011 621 
3708 8067 6269
3709 884  5138
3710 6212 1803
3711 2279 352 
3712 4458 7082
3713 1503 751 
3714 3765 2064
3715 5740 9596
3716 5674 4227
3717 1730 3580
3718 6846 6357
3719 8129 7931
3720 7026 4176
3721 9931 2327
3722 1777 7639
3723 1035 6796
3724 558  7703
3725 9688 4540
3726 2872 942 
3727 4946 2448
3728 8746 6529
3729 3448 8982
3730 4733 8911
3731 1237 7220
3732 106  3013
3733 564  8566
3734 773  7973
3735 5019 6549
3736 248  9490
3737 8643 8139
3738 8389 6867
3739 3368 2085
3740 6109 6053
3741 5932 4547
3742 3678 5928
3743 8665 2465
3744 9660 4153
3745 1733 7938
3746 4042 5855
3747 4029 9329
3748 9688 3155
3749 5165 7886
3750 5260 6010
3751 3420 323 
3752 1893 7828
3753 5138 8264
3754 6183 2144
3755 7685 6341
3756 1396 8340
3757 3988 9478
3758 8334 3237
3759 9367 5873
3760 1208 8667
3761 927  8741
3762 4452 1933
3763 9801 8018
3764 9411 6170
3765 2675 8597
3766 6660 4957
3767 947  9480
3768 9254 6153
3769 2793 2750
3770 9499 3051
3771 2774 1451
3772 7232 7170
3773 2145 5791
3774 4182 8131
3775 9674 3679
3776 3071 8550
3777 3651 6231
3778 2082 6177
3779 4057 2700
3780 6213 7931
3781 8480 6978
3782 4243 7989
3783 8057 298 
3784 7540 9207
3785 9196 3713
3786 1522 6927
3787 7190 9775
3788 5872 893 
3789 9097 4745
3790 8381 855 
3791 1622 8226
3792 2007 9098
3793 907  8521
3794 7957 6333
3795 7443 6715
3796 5800 6868
3797 8725 2251
3798 8409 5231
3799 843  5843
3800 6576 5586
3801 2403 5048
3802 4292 4202
3803 979  4646
3804 2159 7650
3805 3197 8265
3806 5850 4073
3807 935  5028
3808 143  7016
3809 2310 4663
3810 5277 9432
3811 1038 5300
3812 6772 8624
3813 3394 2746
3814 7776 3585
3815 9672 4034
3816 9121 9719
3817 4266 6796
3818 5227 3511
3819 4049 8314
3820 5637 7056
3821 2166 7030
3822 8564 9826
3823 9109 6685
3824 6923 1539
3825 4487 8933
3826 9941 7981
3827 7966 3724
3828 4132 5587
3829 6955 7202
3830 9453 1600
3831 8772 1063
3832 340  633 
3833 8309 1986
3834 8460 5113
3835 3322 3235
3836 5860 6257
3837 5093 3438
3838 9695 5368
3839 6858 2792
3840 6330 1473
3841 3028 6840
3842 7656 3777
3843 8439 3356
3844 4519 205 
3845 2423 3138
3846 2448 2996
3847 5288 8113
3848 9790 1714
3849 6808 4959
3850 6763 8525
3851 9423 8844
3852 9505 4437
3853 5564 4255
3854 3481 4850
3855 4322 759 
3856 9243 1482
3857 7500 3632
3858 9427 2694
3859 8216 8763
3860 3841 3613
3861 6131 2740
3862 2537 3695
3863 4298 7378
3864 9035 1191
3865 7758 1244
3866 5971 6236
3867 8979 3283
3868 1721 9842
3869 6368 9582
3870 8132 8338
3871 2407 8684
3872 7074 6433
3873 4698 5577
3874 1222 3422
3875 2721 2931
3876 7217 5238
3877 6386 949 
3878 6385 7188
3879 1097 9194
3880 2628 5561
3881 6029 2284
3882 6113 6819
3883 6758 8306
3884 2103 721 
3885 5662 7019
3886 5751 8366
3887 7049 2384
3888 7701 1680
3889 3065 2659
3890 5765 2883
3891 8177 3144
3892 4932 2599
3893 1903 1122
3894 7517 6088
3895 5041 6849
3896 1844 7023
3897 6973 3066
3898 5833 8090
3899 3126 3860
3900 6632 8579
3901 8530 5475
3902 8662 5848
3903 668  8055
3904 2972 8022
3905 312  4154
3906 5158 5118
3907 9020 2337
3908 2101 2776
3909 393  3483
3910 5545 5103
3911 3198 3305
3912 5344 6026
3913 1860 4419
3914 7694 5335
3915 5485 9003
3916 9032 289 
3917 3042 2368
3918 9467 8548
3919 4368 2840
3920 6824 5797
3921 1482 1308
3922 3207 7390
3923 9478 482 
3924 437  362 
3925 5995 6779
3926 9321 9540
3927 4136 5154
3928 952  3973
3929 8654 653 
3930 7453 3180
3931 6231 1804
3932 5885 5893
3933 5209 4669
3934 5805 8993
3935 2025 5218
3936 5806 4455
3937 8633 5320
3938 7764 5252
3939 8630 6895
3940 9968 3618
3941 1878 3972
3942 7292 684 
3943 5573 1855
3944 4699 846 
3945 565  3112
3946 5810 3866
3947 7900 450 
3948 6640 4911
3949 614  5682
3950 8994 2012
3951 9389 6893
3952 6993 1667
3953 6810 3815
3954 1465 8949
3955 7672 4192
3956 108  4591
3957 9914 4223
3958 4278 7044
3959 4908 5855
3960 7788 6321
3961 4364 6640
3962 9733 3798
3963 3264 1309
3964 8084 2073
3965 2590 8224
3966 3244 4411
3967 2669 7811
3968 5778 6075
3969 5613 1940
3970 7383 3314
3971 380  2296
3972 5929 3170
3973 2244 6212
3974 5043 1275
3975 4789 6952
3976 8427 3133
3977 9921 6085
3978 1596 769 
3979 5076 4204
3980 3319 8872
3981 3598 8487
3982 6126 6487
3983 9152 2844
3984 6786 8806
3985 7895 1002
3986 9595 6009
3987 6217 5321
3988 6785 2567
3989 6503 5003
3990 744  6007
3991 6417 5109
3992 423  3914
3993 8540 2515
3994 609  7993
3995 444  3371
3996 2510 2596
3997 2000 4668
3998 8593 8891
3999 6454 9379
4000 2943 7142
4001 4780 9529
4002 4393 9161
4003 9210 9005
4004 9823 3614
4005 1180 8071
4006 3215 6798
4007 338  5315
4008 7240 4706
4009 946  1701
4010 6022 1439
4011 9058 4727
4012 1127 9596
4013 3544 6527
4014 2892 8513
4015 8081 7498
4016 3665 7328
4017 8357 2285
4018 4302 3334
4019 5819 5099
4020 1576 7086
4021 184  4157
4022 213  3957
4023 7366 550 
4024 5295 4134
4025 3220 8435
4026 7669 5612
4027 5794 1742
4028 4236 5878
4029 8683 9930
4030 7895 8299
4031 9832 7413
4032 4060 4547
4033 2370 4023
4034 379  5099
4035 2389 1746
4036 9351 922 
4037 3415 3473
4038 397  5465
4039 8311 8482
4040 1670 9506
4041 5546 7657
4042 6777 8993
4043 3856 6242
4044 9716 9312
4045 5532 8149
4046 3604 1244
4047 1082 1618
4048 5420 4526
4049 8181 8008
4050 6462 331 
4051 9348 8396
4052 1414 1496
4053 1542 9053
4054 5236 6337
4055 1028 2553
4056 4619 7881
4057 6245 6264
4058 5562 491 
4059 5353 4625
4060 2677 6097
4061 2459 5634
4062 379  930 
4063 8695 738 
4064 4613 3128
4065 283  2320
4066 6291 1462
4067 9194 4759
4068 8249 2568
4069 2726 8420
4070 6861 6598
4071 2976 5349
4072 3824 4341
4073 2845 8613
4074 2905 61  
4075 4501 577 
4076 4821 1160
4077 3369 4874
4078 7529 3557
4079 6748 6439
4080 4683 3965
4081 5896 4489
4082 1681 3445
4083 4493 723 
4084 688  8962
4085 3467 3545
4086 509  4496
4087 1447 4756
4088 1921 9045
4089 4319 3787
4090 6253 4503
4091 6623 3112
4092 7055 6647
4093 8966 5629
4094 9047 8157
4095 4075 2589
4096 7844 6591
4097 1552 2835
4098 8085 6048
4099 3627 1509
4100 3783 4954
4101 1106 1124
4102 3463 1747
4103 5338 2283
4104 2022 6204
4105 2830 3515
4106 8200 9553
4107 5432 9387
4108 3545 8707
4109 9079 3728
4110 8171 4223
4111 8260 5060
4112 77   6950
4113 5162 2941
4114 292  212 
4115 8228 1377
4116 5223 8635
4117 3068 3799
4118 3534 6360
4119 1216 8652
4120 8216 1432
4121 4960 8713
4122 712  7310
4123 9038 7091
4124 3827 5484
4125 9777 4526
4126 6601 7401
4127 4358 9745
4128 3795 3465
4129 6415 4824
4130 2926 6124
4131 823  8280
4132 9767 1498
4133 6563 2463
4134 4929 1918
4135 1659 577 
4136 3567 1376
4137 3818 9147
4138 5190 9158
4139 6840 8998
4140 5098 8678
4141 7346 2527
4142 9054 9080
4143 7265 370 
4144 6157 4264
4145 7641 2424
4146 5585 864 
4147 9295 7420
4148 5484 5417
4149 2110 6983
4150 5560 4777
4151 8818 4740
4152 9717 8004
4153 9582 9984
4154 368  3757
4155 3019 2090
4156 2330 4193
4157 5087 9860
4158 471  152 
4159 1894 7905
4160 3082 1574
4161 7822 6670
4162 2578 68  
4163 1793 8452
4164 4633 3706
4165 88   8044
4166 80   2420
4167 3473 1933
4168 2721 9917
4169 7821 6655
4170 4519 5821
4171 1334 3038
4172 8073 5531
4173 868  2404
4174 6413 2971
4175 9327 9202
4176 6817 9130
4177 5425 7888
4178 5767 5463
4179 7894 4272
4180 3469 4027
4181 3125 1065
4182 667  6658
4183 2903 9766
4184 189  3622
4185 4300 4449
4186 5814 6095
4187 8375 8474
4188 3126 572 
4189 8546 453 
4190 9711 4080
4191 838  2064
4192 2998 7451
4193 5131 4361
4194 8278 2451
4195 4805 6395
4196 1588 155 
4197 350  397 
4198 5723 4544
4199 758  9813
4200 389  9354
4201 1753 6993
4202 3779 7572
4203 3599 1850
4204 1353 7547
4205 3723 9763
4206 5214 5334
4207 9325 9545
4208 6722 8827
4209 6677 4664
4210 6141 5193
4211 9157 5964
4212 3264 2599
4213 2528 9418
4214 2003 224 
4215 1283 6631
4216 2427 6978
4217 7247 3251
4218 9258 4828
4219 3968 6908
4220 666  5530
4221 3158 2670
4222 2192 3449
4223 9260 1096
4224 8530 7542
4225 2213 9489
4226 324  6556
4227 4072 2082
4228 598  9189
4229 9716 7015
4230 57   9595
4231 5906 710 
4232 3624 8997
4233 2900 9204
4234 9816 272 
4235 256  2226
4236 5642 47  
4237 7108 6393
4238 2456 8045
4239 8796 6572
4240 5703 6050
4241 3838 6473
4242 6800 381 
4243 8542 1439
4244 7147 4699
4245 1991 9404
4246 8667 1494
4247 3968 9679
4248 7733 8924
4249 22   2153
4250 8554 4896
4251 2963 2177
4252 1082 3161
4253 4168 7423
4254 8014 4780
4255 8939 1236
4256 9877 9829
4257 9629 1615
4258 9981 8389
4259 750  4150
4260 2450 2166
4261 9274 7961
4262 5304 3103
4263 1825 2946
4264 3721 3637
4265 1082 8662
4266 1690 7144
4267 8195 9   
4268 5912 1485
4269 4609 252 
4270 1017 8373
4271 4683 4481
4272 1018 3038
4273 6387 1534
4274 1547 4368
4275 3031 4220
4276 7956 6292
4277 6912 8632
4278 7673 8635
4279 2727 604 
4280 8865 7924
4281 8901 9482
4282 5873 6496
4283 6164 604 
4284 2833 7161
4285 9548 9142
4286 2662 6405
4287 4946 5058
4288 6174 1680
4289 7707 2370
4290 1244 2854
4291 4181 1717
4292 5924 8806
4293 1112 2859
4294 3713 9983
4295 6563 389 
4296 3683 844 
4297 8743 8774
4298 2924 752 
4299 9884 8467
4300 6675 629 
4301 8935 6121
4302 8984 9874
4303 5599 356 
4304 9727 8869
4305 2116 2372
4306 6045 4258
4307 1743 7181
4308 8198 3431
4309 8361 194 
4310 9871 894 
4311 6005 3423
4312 3474 6366
4313 3215 1605
4314 9130 9737
4315 3749 6334
4316 6223 3160
4317 712  8237
4318 2014 7011
4319 4525 346 
4320 93   2219
4321 5873 2914
4322 6737 664 
4323 6712 6870
4324 7369 2580
4325 9854 4418
4326 7134 3656
4327 4408 5167
4328 9699 1662
4329 237  1410
4330 1201 9852
4331 699  7558
4332 1378 1529
4333 8935 5233
4334 2170 70  
4335 8934 9072
4336 9137 9796
4337 4789 7406
4338 4275 7621
4339 3645 1686
4340 2745 786 
4341 5486 6020
4342 3323 2065
4343 7121 1612
4344 9743 6153
4345 3547 1157
4346 8063 9663
4347 8517 8168
4348 147  959 
4349 122  9978
4350 1791 6455
4351 3974 4973
4352 2744 1248
4353 8986 6387
4354 6568 1289
4355 1145 4205
4356 1009 5394
4357 7248 5897
4358 4539 6809
4359 8052 8884
4360 8789 324 
4361 2117 1621
4362 6779 965 
4363 1597 1742
4364 2292 3789
4365 8915 7731
4366 9442 4329
4367 7757 3885
4368 1375 8844
4369 8338 2483
4370 9664 1247
4371 5501 3043
4372 9929 8498
4373 1683 2078
4374 3204 3179
4375 6250 8712
4376 5594 846 
4377 6845 7027
4378 4422 703 
4379 6604 2066
4380 3051 9936
4381 2074 6548
4382 7433 3745
4383 6892 800 
4384 1164 9644
4385 5513 4553
4386 5161 8380
4387 6366 395 
4388 1914 5093
4389 2322 2617
4390 3977 1973
4391 4136 5685
4392 2053 2063
4393 7988 18  
4394 9305 4060
4395 386  5393
4396 7115 5286
4397 3970 6246
4398 4567 8284
4399 2535 8493
4400 3279 1035
4401 4831 5142
4402 2380 1937
4403 3410 5586
4404 8196 2018
4405 4792 7413
4406 6551 3559
4407 1400 7967
4408 1147 9263
4409 7498 6587
4410 9040 2484
4411 4395 9359
4412 1689 3274
4413 5086 2670
4414 5819 624 
4415 854  7283
4416 7574 6733
4417 8058 6560
4418 3824 5431
4419 7761 9439
4420 1090 2871
4421 6962 4178
4422 7756 1123
4423 1984 1019
4424 3706 6039
4425 9726 9265
4426 1923 1340
4427 3409 8012
4428 4681 2084
4429 7647 9086
4430 599  3941
4431 9345 1014
4432 2782 8794
4433 6687 690 
4434 9851 6087
4435 512  2662
4436 7330 9743
4437 5003 6552
4438 7779 3557
4439 8433 2067
4440 4676 3196
4441 9063 1583
4442 4649 9647
4443 2241 9480
4444 1726 3187
4445 4791 9595
4446 8643 817 
4447 3649 1217
4448 2724 2560
4449 1036 2287
4450 9993 2881
4451 4775 8269
4452 6279 9764
4453 8271 3607
4454 4020 2070
4455 8031 274 
4456 5007 448 
4457 4911 4348
4458 1758 3882
4459 6347 9981
4460 7211 567 
4461 4614 5448
4462 3085 2803
4463 964  5653
4464 4540 4551
4465 5433 7560
4466 6236 7622
4467 9312 1921
4468 7516 9323
4469 4170 8141
4470 6548 8555
4471 4607 2669
4472 6769 3226
4473 957  7227
4474 8581 5127
4475 5944 9968
4476 5751 5341
4477 1199 1546
4478 217  2516
4479 5936 2835
4480 1037 9249
4481 7856 8235
4482 8923 2584
4483 6731 6876
4484 4179 485 
4485 6779 2248
4486 2710 3147
4487 71   5067
4488 3561 4729
4489 4519 5487
4490 601  7487
4491 879  797 
4492 201  926 
4493 3245 6483
4494 8962 3886
4495 4849 7854
4496 5413 1837
4497 7487 8923
4498 806  9296
4499 9216 7772
4500 1782 4759
4501 4264 737 
4502 5071 8355
4503 8116 2214
4504 4908 5793
4505 8548 1381
4506 4424 2090
4507 7929 7881
4508 3200 5430
4509 8525 4428
4510 5016 6493
4511 23   4031
4512 1249 8889
4513 8690 8686
4514 5818 2614
4515 9042 8177
4516 2275 7656
4517 1541 1205
4518 3589 9514
4519 2416 8553
4520 7036 924 
4521 372  7658
4522 2669 9512
4523 1521 5128
4524 8724 3276
4525 9287 699 
4526 486  8639
4527 767  7249
4528 6780 5024
4529 1052 6714
4530 7607 6948
4531 6910 58  
4532 3090 1529
4533 6698 1162
4534 6922 2054
4535 5456 8701
4536 6151 8755
4537 711  243 
4538 2986 8078
4539 6536 7165
4540 4149 5926
4541 9597 9915
4542 1463 4057
4543 6313 5813
4544 443  9427
4545 2794 3901
4546 203  9241
4547 9123 6542
4548 5140 6233
4549 7645 5629
4550 8939 3582
4551 7604 7499
4552 3582 5366
4553 1481 7607
4554 9362 3060
4555 5610 2955
4556 7378 9228
4557 7346 6914
4558 2224 6888
4559 3929 7719
4560 9607 5971
4561 8494 5007
4562 2726 8152
4563 2320 4372
4564 4712 2769
4565 8675 9105
4566 4186 5743
4567 2352 4720
4568 2934 9325
4569 1012 8767
4570 8464 8180
4571 3508 9777
4572 8699 1070
4573 6534 1532
4574 3461 9137
4575 3644 4156
4576 8627 465 
4577 5378 9258
4578 9669 8384
4579 2957 3167
4580 6137 4874
4581 6540 3636
4582 1725 1311
4583 463  2335
4584 2080 3692
4585 921  5255
4586 1476 7992
4587 1873 4045
4588 5086 1426
4589 4416 4168
4590 9798 7024
4591 3724 7393
4592 5434 1562
4593 2962 5445
4594 4432 4611
4595 6308 7025
4596 9794 7587
4597 5257 5311
4598 4827 3007
4599 6854 2417
4600 9279 654 
4601 59   4382
4602 9597 6791
4603 1093 2830
4604 5341 1048
4605 9282 9753
4606 510  4164
4607 6613 1465
4608 3158 2476
4609 3964 7656
4610 3626 2194
4611 8396 93  
4612 3899 7714
4613 1586 5963
4614 6041 7721
4615 1008 68  
4616 6920 1784
4617 6959 697 
4618 5350 9665
4619 5509 2988
4620 5595 3725
4621 6295 6432
4622 9063 1546
4623 3130 5113
4624 6378 6064
4625 5739 8796
4626 8088 9358
4627 7430 8411
4628 7550 1115
4629 6959 6744
4630 8464 1668
4631 7591 8838
4632 1987 9908
4633 7883 7893
4634 324  488 
4635 9242 9276
4636 7802 1922
4637 9271 5033
4638 3941 3252
4639 7909 5051
4640 3468 5980
4641 6654 2189
4642 2905 7307
4643 9038 6878
4644 9259 2651
4645 8903 2812
4646 2621 4793
4647 7288 6613
4648 7911 411 
4649 812  5381
4650 6876 6644
4651 1484 7940
4652 1441 5226
4653 3625 2194
4654 2610 85  
4655 5055 7432
4656 6119 7739
4657 7662 4161
4658 7475 4245
4659 6613 2836
4660 5499 9359
4661 6343 9791
4662 2510 4887
4663 6286 6920
4664 1402 4761
4665 4778 2537
4666 7627 3204
4667 6576 7548
4668 5765 2645
4669 6289 1485
4670 1127 9031
4671 7300 5883
4672 6091 2179
4673 7700 2109
4674 4466 518 
4675 2491 3836
4676 2224 9458
4677 2904 831 
4678 6535 9711
4679 9974 8689
4680 880  904 
4681 2933 8605
4682 2811 9517
4683 9821 9976
4684 7295 1955
4685 276  2062
4686 7500 245 
4687 9939 7153
4688 3842 4724
4689 4994 2292
4690 4128 2316
4691 4270 8410
4692 3176 9448
4693 7006 9904
4694 9666 8194
4695 1760 9950
4696 2600 3781
4697 6847 6771
4698 7626 6229
4699 4526 5679
4700 4730 1226
4701 7400 6875
4702 2299 480 
4703 1117 978 
4704 1301 6647
4705 9082 6748
4706 2684 9430
4707 3499 4989
4708 6432 2380
4709 4777 5304
4710 1054 8449
4711 9388 4928
4712 8603 4047
4713 666  1284
4714 8231 3936
4715 8278 5846
4716 3628 6432
4717 7167 5228
4718 5625 5036
4719 7327 2385
4720 9805 9979
4721 7811 1564
4722 8824 553 
4723 7186 3830
4724 1476 6989
4725 3114 6638
4726 289  5752
4727 4461 8162
4728 7443 6651
4729 8033 9106
4730 1227 6935
4731 3035 7077
4732 5340 1325
4733 7234 1892
4734 1654 9758
4735 8099 312 
4736 1433 6397
4737 3931 2068
4738 2744 8017
4739 2111 83  
4740 7213 474 
4741 3220 8798
4742 8988 8803
4743 8344 6564
4744 1412 5197
4745 7075 8752
4746 4633 4866
4747 5266 9055
4748 8405 6104
4749 8148 2710
4750 2128 4060
4751 1832 103 
4752 3244 8650
4753 2070 1086
4754 8349 5547
4755 7075 3228
4756 980  708 
4757 2932 7533
4758 2090 9579
4759 4763 2032
4760 7300 4021
4761 4792 7231
4762 6188 2881
4763 8049 8489
4764 179  2434
4765 9781 6271
4766 626  6633
4767 5412 3233
4768 8316 5426
4769 2076 641 
4770 445  8168
4771 3753 3786
4772 3241 5118
4773 4972 29  
4774 1530 8333
4775 213  142 
4776 8731 2491
4777 6785 90  
4778 765  4585
4779 3045 9298
4780 6619 8787
4781 1963 6657
4782 6798 9801
4783 7017 8885
4784 8547 8905
4785 6268 5883
4786 8617 3462
4787 5687 664 
4788 3521 1122
4789 7896 2661
4790 6899 3128
4791 779  5850
4792 4976 627 
4793 6367 2442
4794 5902 7120
4795 9256 2261
4796 8911 1743
4797 2469 4675
4798 5050 5728
4799 7231 1616
4800 186  3   
4801 6615 1250
4802 9862 5022
4803 2515 5654
4804 4195 592 
4805 8975 8548
4806 2001 4230
4807 9992 6678
4808 2592 5816
4809 7120 7003
4810 981  6277
4811 4756 8482
4812 4103 656 
4813 6871 7264
4814 1042 6229
4815 412  8562
4816 3547 6290
4817 3528 8522
4818 8456 1203
4819 2049 6794
4820 7264 3554
4821 5952 6146
4822 7524 2792
4823 6706 1839
4824 7979 8771
4825 1712 5301
4826 8723 2061
4827 1044 367 
4828 3171 9604
4829 7939 6827
4830 3400 5391
4831 2372 2237
4832 3241 4029
4833 2616 3534
4834 5773 9266
4835 7944 9690
4836 755  4210
4837 9376 3801
4838 9030 7342
4839 4329 186 
4840 5161 8576
4841 4154 7211
4842 5488 9679
4843 7360 6631
4844 9422 5741
4845 9114 6050
4846 540  3566
4847 7848 4549
4848 6610 4811
4849 154  8009
4850 1161 947 
4851 7871 353 
4852 9565 41  
4853 3879 3629
4854 2835 6308
4855 8085 9736
4856 7416 7479
4857 9981 6894
4858 3854 156 
4859 5679 6295
4860 7112 6260
4861 4407 5422
4862 8247 8975
4863 3644 6848
4864 9328 8364
4865 2852 2759
4866 5002 8356
4867 8220 4720
4868 287  9430
4869 3571 1174
4870 5269 9709
4871 426  4874
4872 7965 9675
4873 1100 3966
4874 3691 5659
4875 1590 9981
4876 588  6698
4877 4106 8540
4878 7578 5586
4879 2904 1139
4880 3799 4177
4881 1979 6762
4882 104  4179
4883 8727 4216
4884 9099 2768
4885 6794 2335
4886 7042 3549
4887 6363 9999
4888 9072 6273
4889 9801 5072
4890 8374 3583
4891 7273 8941
4892 540  3261
4893 7745 9839
4894 8591 7219
4895 7551 1120
4896 3815 4462
4897 8168 3808
4898 8775 5407
4899 2172 7278
4900 1614 1181
4901 4427 8195
4902 8982 7621
4903 5127 3833
4904 2410 5461
4905 7014 7384
4906 8194 2360
4907 7061 977 
4908 7503 7461
4909 5044 7204
4910 9390 8029
4911 5883 8759
4912 9220 9116
4913 960  4800
4914 5498 7380
4915 2005 8663
4916 437  3895
4917 8641 3462
4918 3093 4524
4919 8544 183 
4920 7571 2357
4921 9171 786 
4922 2622 5231
4923 7999 4658
4924 713  661 
4925 8035 2593
4926 164  9742
4927 61   2965
4928 9742 3307
4929 7424 4143
4930 8550 2923
4931 3790 5985
4932 1346 1977
4933 8070 1078
4934 2732 3197
4935 9056 2052
4936 4405 1778
4937 8557 4522
4938 9548 2889
4939 6060 2184
4940 1502 1344
4941 9602 6281
4942 4766 2441
4943 2756 5113
4944 775  8921
4945 3891 6922
4946 922  9656
4947 9741 769 
4948 3141 9331
4949 1833 6129
4950 7295 1120
4951 1135 3263
4952 7896 8629
4953 1581 8995
4954 8390 6460
4955 6338 5108
4956 7045 7069
4957 6135 7076
4958 2696 6561
4959 4701 4745
4960 9724 3754
4961 305  6238
4962 310  9872
4963 1526 4700
4964 9692 8204
4965 1095 2536
4966 3916 3337
4967 1326 1904
4968 3453 1037
4969 9004 1872
4970 827  2463
4971 4463 524 
4972 293  6436
4973 3366 5640
4974 7130 9972
4975 8084 854 
4976 5021 9336
4977 6794 3249
4978 4504 1095
4979 6260 7339
4980 5714 9658
4981 1615 6102
4982 8060 8127
4983 2480 394 
4984 233  3074
4985 1065 1571
4986 2795 312 
4987 5072 8941
4988 4534 3477
4989 4359 9379
4990 1108 8355
4991 4178 3183
4992 6795 2812
4993 2254 2210
4994 8705 1368
4995 5605 976 
4996 648  362 
4997 6978 844 
4998 8844 3421
4999 2567 8918
5000 8192 7251
5001 4968 917 
5002 5350 7167
5003 1267 1134
5004 7556 986 
5005 5164 8036
5006 2885 7866
5007 7963 6533
5008 7581 9166
5009 8124 4973
5010 672  606 
5011 5434 4377
5012 526  2493
5013 7276 1123
5014 8600 2451
5015 5708 5703
5016 6855 5741
5017 3537 9620
5018 9287 5630
5019 341  7722
5020 4768 8746
5021 8583 6806
5022 7999 7029
5023 1977 6312
5024 8385 2345
5025 6870 4373
5026 5717 1145
5027 288  3963
5028 1422 1244
5029 9460 6371
5030 8619 5820
5031 3236 5781
5032 490  9053
5033 4427 1657
5034 8038 4346
5035 9975 1945
5036 7296 5814
5037 2244 3515
5038 5010 6863
5039 6822 7135
5040 4500 3104
5041 6368 2385
5042 1687 9923
5043 3959 341 
5044 7955 3893
5045 4773 8787
5046 3032 7524
5047 4881 7317
5048 7516 6464
5049 4689 6843
5050 6868 5804
5051 2086 2653
5052 7651 9577
5053 9499 8721
5054 2631 8700
5055 2826 4739
5056 7912 4111
5057 1389 9664
5058 6250 2513
5059 665  1535
5060 269  2757
5061 9539 5301
5062 3370 8052
5063 3531 4974
5064 5018 2543
5065 8299 8209
5066 4955 620 
5067 3228 4296
5068 3960 162 
5069 7491 4698
5070 6961 6651
5071 1529 2339
5072 4407 2262
5073 6918 6723
5074 4498 7757
5075 2560 6939
5076 8562 9740
5077 7823 9817
5078 2795 4727
5079 2625 3708
5080 1660 1344
5081 9262 1667
5082 6916 8565
5083 2105 3176
5084 3763 4097
5085 621  2580
5086 8728 7817
5087 3667 744 
5088 1148 2394
5089 8122 4434
5090 1276 9074
5091 226  4210
5092 589  8825
5093 7960 5784
5094 4561 9231
5095 7053 5571
5096 6052 8570
5097 1814 1566
5098 8994 9479
5099 3071 7688
5100 7896 6077
5101 379  4622
5102 8012 2395
5103 5529 6354
5104 9379 235 
5105 7499 7549
5106 5443 9384
5107 9674 1493
5108 9710 5315
5109 2980 5428
5110 7350 344 
5111 6983 8774
5112 562  3199
5113 7770 4371
5114 7369 4762
5115 5582 1354
5116 6965 4640
5117 3140 5398
5118 5325 8189
5119 849  4443
5120 926  3538
5121 3946 7971
5122 5767 2653
5123 9288 4900
5124 344  5778
5125 5417 8949
5126 3551 2869
5127 6125 7083
5128 2419 8168
5129 5439 1254
5130 4238 9988
5131 5740 5671
5132 7952 6888
5133 6402 8404
5134 2467 3518
5135 7750 8547
5136 9862 9218
5137 4577 1395
5138 2389 3408
5139 2210 1360
5140 3033 381 
5141 9156 3580
5142 1332 921 
5143 9740 5012
5144 8415 3324
5145 7468 1103
5146 2508 2164
5147 2922 4249
5148 1197 7   
5149 9617 2149
5150 6819 8281
5151 5121 9379
5152 8313 7583
5153 5273 7192
5154 1142 4528
5155 20   165 
5156 3036 5612
5157 31   2023
5158 4496 4702
5159 9547 3492
5160 9926 7688
5161 540  9730
5162 3637 3593
5163 6374 9647
5164 2397 6746
5165 2567 756 
5166 4578 2515
5167 993  8199
5168 47   113 
5169 7395 5954
5170 4738 3302
5171 1168 5747
5172 2577 7794
5173 5887 4902
5174 6788 6758
5175 6898 4728
5176 3011 3562
5177 2839 9442
5178 4515 7413
5179 8398 4226
5180 539  3648
5181 7901 6278
5182 4030 8059
5183 2868 2708
5184 9178 546 
5185 914  9309
5186 2252 9988
5187 842  2011
5188 9218 4825
5189 4161 4320
5190 4825 7945
5191 9616 6824
5192 3953 7457
5193 9448 4862
5194 9635 7133
5195 4641 8202
5196 6144 4448
5197 3388 708 
5198 3917 4686
5199 7295 8083
5200 3456 4473
5201 3431 3538
5202 6018 7523
5203 1861 5248
5204 3561 5477
5205 5262 9736
5206 9382 5924
5207 9959 2926
5208 125  8949
5209 6337 6322
5210 7187 3862
5211 5855 4320
5212 9161 8487
5213 9980 2725
5214 7439 7692
5215 5946 8737
5216 3569 6855
5217 7727 217 
5218 5123 9814
5219 4254 5329
5220 4052 8348
5221 3283 3146
5222 9142 6873
5223 7461 8683
5224 1362 9103
5225 5781 407 
5226 8880 1888
5227 6568 3879
5228 3539 234 
5229 1931 2994
5230 2321 6480
5231 9163 3271
5232 9828 2726
5233 7098 30  
5234 3726 5408
5235 246  9777
5236 2569 669 
5237 3779 7218
5238 8268 9567
5239 104  4125
5240 484  6357
5241 7971 2801
5242 464  2641
5243 3781 8714
5244 985  6161
5245 9476 5115
5246 9173 958 
5247 4205 2663
5248 72   9608
5249 5407 450 
5250 6144 2761
5251 2940 5037
5252 4410 7501
5253 3808 9516
5254 7593 2045
5255 7782 9620
5256 8754 3026
5257 8827 5084
5258 5281 8705
5259 6184 8269
5260 9481 5366
5261 2719 3404
5262 1815 8921
5263 4229 8382
5264 8299 2710
5265 965  4929
5266 5715 254 
5267 6723 7072
5268 5510 1795
5269 3211 4535
5270 8443 2721
5271 6134 9911
5272 3682 550 
5273 9752 3879
5274 1038 9957
5275 4904 3424
5276 2855 4144
5277 1921 93  
5278 8606 2884
5279 1393 1742
5280 5941 9460
5281 2248 7325
5282 9396 6149
5283 4981 9503
5284 1944 6347
5285 1056 7254
5286 1744 3888
5287 6591 19  
5288 6499 3036
5289 6594 4652
5290 5600 1535
5291 6220 3766
5292 6012 6296
5293 4009 6656
5294 6968 2781
5295 9949 1448
5296 682  1903
5297 5524 3015
5298 2530 4086
5299 4316 7297
5300 9049 220 
5301 3260 632 
5302 5071 12  
5303 8241 5395
5304 7076 3558
5305 6042 7776
5306 7398 9029
5307 5019 655 
5308 9611 2562
5309 2158 4728
5310 6794 6770
5311 3965 8024
5312 7383 769 
5313 7046 683 
5314 1381 4524
5315 8690 3802
5316 9427 8226
5317 1073 387 
5318 6654 8287
5319 2533 2530
5320 7002 7410
5321 3979 743 
5322 4256 9465
5323 4118 3120
5324 688  5370
5325 676  4062
5326 3380 5626
5327 3086 2373
5328 7469 6927
5329 3007 9359
5330 3494 9635
5331 1655 5685
5332 7906 9816
5333 9631 5184
5334 70   1419
5335 6027 6217
5336 5797 775 
5337 6960 366 
5338 7206 1587
5339 4678 8233
5340 6513 4664
5341 6826 3054
5342 1638 2102
5343 2713 4643
5344 5719 9177
5345 2290 8195
5346 3168 8364
5347 2181 630 
5348 2421 3985
5349 4031 4970
5350 9927 2456
5351 5176 3802
5352 9932 7891
5353 1639 4050
5354 2967 6817
5355 9011 2483
5356 8507 6840
5357 4028 2294
5358 9199 966 
5359 8590 2458
5360 1700 9599
5361 7483 7721
5362 8705 7541
5363 1211 6977
5364 1228 3308
5365 8493 1690
5366 2727 115 
5367 8666 7422
5368 3659 2580
5369 1234 713 
5370 2386 991 
5371 9992 4623
5372 2848 5947
5373 2699 3263
5374 6158 5627
5375 9994 2760
5376 5609 6882
5377 6531 5675
5378 9648 7450
5379 9438 9288
5380 5607 997 
5381 5555 4267
5382 7707 5293
5383 9116 9813
5384 4881 4601
5385 6763 3847
5386 3279 5350
5387 2559 9379
5388 6061 2783
5389 3552 1704
5390 908  5910
5391 4487 1730
5392 1635 4848
5393 9440 3166
5394 9810 448 
5395 7588 9350
5396 410  6845
5397 4606 6793
5398 1162 7794
5399 4138 4310
5400 3565 4729
5401 8524 7090
5402 4546 6989
5403 1634 9240
5404 5435 4988
5405 1860 1159
5406 2207 713 
5407 2977 2490
5408 359  9869
5409 5271 4727
5410 237  8709
5411 4367 5697
5412 2690 4333
5413 1071 509 
5414 6086 6703
5415 3119 1101
5416 7613 2168
5417 4939 6281
5418 7017 1886
5419 6280 7941
5420 1594 4058
5421 9213 339 
5422 9415 3067
5423 131  5642
5424 8331 4931
5425 8825 347 
5426 2942 1552
5427 313  4872
5428 7784 3098
5429 1242 4760
5430 5530 6049
5431 2569 4783
5432 9371 9066
5433 3579 9919
5434 1355 8970
5435 6003 1818
5436 1390 2317
5437 5614 4992
5438 6881 3964
5439 5133 7603
5440 2333 9927
5441 8741 5869
5442 9737 5628
5443 9068 4581
5444 4448 8393
5445 8269 3541
5446 9249 9826
5447 8972 1262
5448 3431 5242
5449 9693 8816
5450 2032 5547
5451 1045 7359
5452 9570 547 
5453 4603 9608
5454 6621 1094
5455 3952 3908
5456 4204 2861
5457 5303 2278
5458 3967 3296
5459 5400 6516
5460 2200 2473
5461 4271 6198
5462 4326 5255
5463 2487 5738
5464 3263 8592
5465 2130 6172
5466 2012 416 
5467 1840 5081
5468 9451 5927
5469 5580 8986
5470 3719 3003
5471 3159 5058
5472 8442 9097
5473 6643 7766
5474 4078 20  
5475 4923 9858
5476 9401 3164
5477 977  5551
5478 8905 9754
5479 1965 6412
5480 2213 3501
5481 6008 228 
5482 7412 4124
5483 5774 6857
5484 7447 7396
5485 4138 3877
5486 4805 4479
5487 2335 5134
5488 3280 4407
5489 1134 7494
5490 3705 623 
5491 8495 1166
5492 4811 3427
5493 1900 7920
5494 622  1003
5495 2544 976 
5496 3029 3343
5497 2411 6783
5498 6406 2911
5499 9709 3643
5500 1135 6151
5501 4793 6050
5502 9129 5868
5503 1853 2417
5504 7002 407 
5505 8444 6314
5506 3915 1820
5507 889  7097
5508 8269 9584
5509 9237 9201
5510 3130 9166
5511 7141 7053
5512 2926 7622
5513 4350 485 
5514 1576 3440
5515 5706 6294
5516 4685 5804
5517 7286 1848
5518 3001 5170
5519 4829 8756
5520 2877 9965
5521 4730 5561
5522 1285 8837
5523 8556 2070
5524 4586 9449
5525 1425 9107
5526 9234 8812
5527 2821 6795
5528 3602 9339
5529 146  3389
5530 6700 1323
5531 4744 657 
5532 7095 2386
5533 4898 390 
5534 7145 9366
5535 8036 6850
5536 3231 915 
5537 7485 148 
5538 7275 3872
5539 8697 896 
5540 8841 7040
5541 6431 9508
5542 1507 8244
5543 5156 3918
5544 3902 5931
5545 5349 9884
5546 5437 264 
5547 5318 6077
5548 6120 5394
5549 9448 7579
5550 9761 4318
5551 2688 5077
5552 3739 6008
5553 7290 2367
5554 2424 9313
5555 2822 2715
5556 6554 4333
5557 5695 2091
5558 6418 7194
5559 5076 4988
5560 7697 2871
5561 3896 842 
5562 6813 5190
5563 148  6527
5564 942  4978
5565 3179 7768
5566 2370 3419
5567 8701 1073
5568 6449 2021
5569 3481 4401
5570 4782 3717
5571 6376 3094
5572 2259 6554
5573 3595 2370
5574 6217 4118
5575 7400 1844
5576 5812 7443
5577 8142 8681
5578 9151 8747
5579 7139 825 
5580 9891 9333
5581 8093 8364
5582 1223 8938
5583 5053 1550
5584 9061 6473
5585 8494 6858
5586 4360 3245
5587 2385 4224
5588 3181 8573
5589 7928 9602
5590 8611 5028
5591 641  8021
5592 6605 6532
5593 2117 2542
5594 8825 5517
5595 1959 7088
5596 3594 4256
5597 8695 2087
5598 3867 97  
5599 6199 7875
5600 5595 6088
5601 5041 1563
5602 8357 1623
5603 8724 4761
5604 2372 9833
5605 3791 6111
5606 1849 181 
5607 4479 3840
5608 707  8522
5609 8216 5114
5610 6003 982 
5611 1028 3764
5612 8292 8315
5613 7700 1833
5614 5699 2982
5615 5534 8638
5616 9398 5990
5617 9478 5801
5618 4972 5659
5619 1973 2427
5620 820  1252
5621 5753 2835
5622 8102 8387
5623 6032 6464
5624 9034 3546
5625 2743 8594
5626 684  5717
5627 8041 9340
5628 154  2824
5629 6625 2707
5630 3693 6194
5631 4059 8425
5632 7720 1645
5633 2790 8949
5634 7052 3602
5635 8321 9472
5636 4685 4671
5637 972  854 
5638 5983 8082
5639 9515 8130
5640 1193 9091
5641 523  3836
5642 5613 2992
5643 5269 9439
5644 29   7351
5645 9935 5949
5646 4960 1252
5647 1058 2318
5648 7017 8141
5649 507  6458
5650 2879 9515
5651 3927 3068
5652 8019 100 
5653 847  1258
5654 5366 329 
5655 1103 7305
5656 1208 7552
5657 2900 8283
5658 7691 8333
5659 4077 4547
5660 7267 2561
5661 6676 4000
5662 2515 1167
5663 1389 5500
5664 2719 7586
5665 4572 173 
5666 3647 4765
5667 7084 1696
5668 4170 1872
5669 6864 7102
5670 5975 9554
5671 2545 3050
5672 5300 4830
5673 1262 3174
5674 710  6317
5675 7757 14  
5676 5923 7936
5677 595  3044
5678 2242 9175
5679 5699 8508
5680 1516 6140
5681 6315 6009
5682 381  3495
5683 2898 2659
5684 7766 5139
5685 3567 1860
5686 3226 3664
5687 1892 6849
5688 4059 4924
5689 1571 3052
5690 8611 4894
5691 1690 8453
5692 6167 7963
5693 2131 9332
5694 6565 8253
5695 715  5991
5696 5969 1899
5697 2446 4530
5698 9947 6265
5699 679  125 
5700 3755 8344
5701 5748 9036
5702 7730 1846
5703 6346 8465
5704 5950 1687
5705 7162 7496
5706 2362 69  
5707 8071 2053
5708 9152 2629
5709 2441 4379
5710 3752 2529
5711 3218 6608
5712 6741 1029
5713 965  2121
5714 2895 1632
5715 4293 249 
5716 7412 5124
5717 9709 6570
5718 181  3567
5719 445  7485
5720 858  2689
5721 7611 7022
5722 1588 3591
5723 8023 2393
5724 4880 5120
5725 1425 3699
5726 153  3314
5727 4739 4215
5728 7928 3323
5729 8416 301 
5730 1971 8229
5731 6311 1669
5732 5841 5753
5733 3886 1141
5734 2892 509 
5735 6492 4474
5736 8217 477 
5737 4194 4797
5738 4736 5209
5739 7788 317 
5740 9287 5923
5741 5412 3079
5742 3205 5478
5743 1196 5242
5744 3750 7329
5745 436  8617
5746 8275 1950
5747 2659 9517
5748 6161 3616
5749 412  20  
5750 3714 7664
5751 2322 9826
5752 5762 9121
5753 933  5792
5754 9412 6979
5755 8417 3604
5756 9709 7286
5757 3218 1430
5758 3371 4779
5759 4859 5429
5760 6588 8777
5761 9709 9360
5762 1220 2935
5763 1421 5863
5764 9094 3122
5765 5251 138 
5766 5658 6879
5767 7122 3664
5768 7665 4514
5769 4074 23  
5770 8452 2978
5771 5988 9319
5772 8228 7049
5773 5415 4449
5774 8234 1810
5775 1346 7958
5776 2363 7813
5777 1828 742 
5778 343  9085
5779 4225 8875
5780 3154 682 
5781 8935 5012
5782 2229 6169
5783 2814 4193
5784 6527 9874
5785 9078 6703
5786 4653 305 
5787 5330 5532
5788 2503 7967
5789 5114 8778
5790 7537 7429
5791 4143 8387
5792 825  1464
5793 1254 127 
5794 9843 3458
5795 1294 5922
5796 1407 4351
5797 3129 8624
5798 9257 9231
5799 8903 1335
5800 7781 3081
5801 4816 4710
5802 847  3126
5803 8899 7811
5804 2052 5316
5805 9544 8992
5806 7428 3372
5807 4889 7844
5808 8943 2484
5809 3919 7811
5810 2553 9447
5811 9532 5442
5812 8709 4409
5813 7359 2797
5814 9546 4163
5815 4484 3114
5816 8951 5855
5817 637  3837
5818 3248 1282
5819 4166 7543
5820 6629 4954
5821 8022 3713
5822 5917 7047
5823 4771 5908
5824 6231 6583
5825 9463 2057
5826 7543 6479
5827 3626 4261
5828 9502 3130
5829 7247 3928
5830 1235 3635
5831 444  8873
5832 6516 3262
5833 4934 4926
5834 8437 3524
5835 2139 6564
5836 4289 778 
5837 5246 6223
5838 9907 4348
5839 3402 2507
5840 3442 1991
5841 7840 1520
5842 6799 6109
5843 8235 4597
5844 7637 1606
5845 338  4757
5846 79   5475
5847 6948 6500
5848 3519 9809
5849 5771 7479
5850 7791 9230
5851 621  1440
5852 6133 4467
5853 7705 8349
5854 5541 8939
5855 4503 9696
5856 1706 7835
5857 1938 8063
5858 5974 995 
5859 1811 5008
5860 4959 731 
5861 7742 2950
5862 8420 8231
5863 2773 4949
5864 2609 4316
5865 4889 1874
5866 3668 9570
5867 8595 4078
5868 598  9639
5869 7035 3755
5870 5121 3640
5871 5056 5216
5872 453  4257
5873 2998 9251
5874 2945 6680
5875 7853 1583
5876 7616 9607
5877 8358 2232
5878 4276 1412
5879 4837 4328
5880 5393 6095
5881 7968 1814
5882 5421 9827
5883 9260 2227
5884 5694 5374
5885 6496 9999
5886 959  9449
5887 1236 2208
5888 3066 3746
5889 1622 1949
5890 9035 148 
5891 183  26  
5892 4930 1049
5893 6205 8110
5894 2469 1760
5895 1962 4349
5896 8731 5620
5897 837  1829
5898 5504 435 
5899 8949 247 
5900 9450 6253
5901 4055 1676
5902 7420 6349
5903 2575 5189
5904 8098 466 
5905 1217 3185
5906 9655 5140
5907 1643 9818
5908 9814 9810
5909 7423 3928
5910 4572 6580
5911 7353 7990
5912 712  4722
5913 8764 2125
5914 705  6612
5915 6119 8628
5916 9361 2085
5917 8310 7695
5918 3664 2971
5919 198  759 
5920 1703 1296
5921 2518 3288
5922 1607 5057
5923 8194 1224
5924 8929 8270
5925 1700 9132
5926 3451 3543
5927 6312 9260
5928 9223 9860
5929 3596 9833
5930 3922 7203
5931 9391 1282
5932 5455 6915
5933 4455 7666
5934 2280 5609
5935 4887 84  
5936 6264 6370
5937 4335 5479
5938 1534 6896
5939 9240 6508
5940 7223 305 
5941 1209 3227
5942 2650 3082
5943 6880 2974
5944 2418 8597
5945 127  6771
5946 8697 2003
5947 5604 7675
5948 2425 2727
5949 1381 3342
5950 771  5350
5951 1168 2579
5952 6686 6235
5953 9319 1440
5954 2410 2032
5955 2401 6415
5956 4981 606 
5957 9261 1383
5958 9244 1895
5959 4415 5269
5960 4198 5999
5961 9441 6111
5962 2732 7636
5963 9090 8466
5964 1181 777 
5965 8380 9642
5966 9467 6800
5967 5868 9489
5968 3478 1117
5969 4368 4340
5970 6775 1476
5971 2660 5545
5972 651  3615
5973 5535 9519
5974 9327 4476
5975 4889 8373
5976 8715 6698
5977 2583 3594
5978 9120 3277
5979 1041 6617
5980 6678 7612
5981 4319 3925
5982 5701 7039
5983 1755 7096
5984 3    4232
5985 740  2741
5986 9047 101 
5987 3763 71  
5988 8021 9407
5989 2875 63  
5990 4883 4458
5991 4912 8046
5992 6529 342 
5993 9807 2809
5994 8761 5070
5995 3887 3172
5996 8703 4446
5997 776  5264
5998 2837 88  
5999 9611 3175
6000 9689 7122
6001 6893 4410
6002 13   123 
6003 9097 3677
6004 2441 3600
6005 2627 2249
6006 3618 8419
6007 2824 2864
6008 306  2666
6009 6312 2851
6010 6691 7385
6011 8373 9088
6012 9279 8964
6013 4114 7793
6014 3231 7323
6015 2292 7526
6016 2721 3626
6017 5825 5598
6018 5085 7493
6019 8854 3413
6020 2875 3361
6021 7619 3894
6022 213  4254
6023 9527 667 
6024 1803 6476
6025 5697 5685
6026 4719 6733
6027 5282 6024
6028 3718 5529
6029 8204 7620
6030 1970 1970
6031 8553 8378
6032 9413 6737
6033 492  6463
6034 7492 1164
6035 2083 9167
6036 3601 4264
6037 8293 9247
6038 74   6699
6039 9580 436 
6040 1943 7755
6041 2258 740 
6042 3156 3133
6043 450  5143
6044 7574 500 
6045 1286 7580
6046 6889 2117
6047 9230 8164
6048 7186 4046
6049 7505 6708
6050 3224 1038
6051 393  4900
6052 9102 7566
6053 2509 2644
6054 2999 5208
6055 3044 9253
6056 2081 5869
6057 3490 5731
6058 9798 9541
6059 6493 4554
6060 7786 5241
6061 5035 6845
6062 4526 236 
6063 5241 2177
6064 898  4495
6065 8786 5045
6066 7961 7976
6067 4927 9365
6068 8891 9856
6069 946  7116
6070 9556 6868
6071 9181 1644
6072 7626 4291
6073 5045 5843
6074 1791 5426
6075 2278 9948
6076 5894 778 
6077 5936 7576
6078 9218 9554
6079 9667 4480
6080 7112 9526
6081 5499 2462
6082 884  7283
6083 4318 3877
6084 6906 967 
6085 8385 2368
6086 6668 1212
6087 7203 1329
6088 7627 2385
6089 6511 1044
6090 8791 9052
6091 3624 8796
6092 5985 4961
6093 7460 9673
6094 3277 4557
6095 9313 6742
6096 1875 8915
6097 5575 9036
6098 4942 5689
6099 3375 9704
6100 9915 2102
6101 472  6886
6102 4952 731 
6103 4705 6261
6104 7173 5799
6105 8051 667 
6106 5322 8408
6107 2886 8630
6108 7437 8447
6109 7691 3975
6110 5646 813 
6111 2794 3733
6112 8451 2409
6113 2116 5238
6114 1298 2315
6115 6381 4364
6116 3572 8953
6117 3948 2811
6118 9678 2471
6119 7457 2159
6120 2464 5129
6121 505  7779
6122 3740 2930
6123 4205 2659
6124 5765 5601
6125 9581 5346
6126 6456 7857
6127 1374 1634
6128 7030 8672
6129 1691 225 
6130 5283 9836
6131 4061 5768
6132 975  5515
6133 4337 2819
6134 330  8448
6135 7992 4875
6136 5036 1620
6137 7279 2282
6138 6963 3832
6139 5115 5770
6140 215  5779
6141 5175 3049
6142 8436 1735
6143 2156 2000
6144 3202 1198
6145 5774 1303
6146 9660 6872
6147 3881 5979
6148 3965 3741
6149 9767 3897
6150 829  4246
6151 7611 4496
6152 8385 4540
6153 6138 2323
6154 5657 6825
6155 9154 8401
6156 4737 8111
6157 6874 7019
6158 4887 8399
6159 50   5405
6160 4468 3175
6161 7253 8869
6162 1506 359 
6163 1151 7090
6164 138  3571
6165 3118 428 
6166 3600 8726
6167 1972 5372
6168 8625 7638
6169 3166 8199
6170 7913 7174
6171 7632 1827
6172 8517 2286
6173 4021 583 
6174 6530 6395
6175 8652 483 
6176 5915 7958
6177 6501 8582
6178 9098 4141
6179 2    954 
6180 9823 7483
6181 5304 8813
6182 4499 1576
6183 8051 1692
6184 8834 1628
6185 7394 2252
6186 7815 950 
6187 9170 7402
6188 6359 4228
6189 4932 1928
6190 6130 9722
6191 9775 5212
6192 47   5998
6193 4953 7633
6194 5040 5252
6195 6130 2257
6196 2316 5221
6197 4482 5686
6198 7575 6029
6199 5001 9696
6200 2524 6687
6201 9840 4955
6202 9832 1395
6203 7683 6812
6204 7955 7011
6205 9754 3334
6206 4724 814 
6207 4451 2090
6208 4613 1976
6209 9167 1040
6210 1758 9281
6211 3089 8290
6212 5693 1814
6213 490  2106
6214 3945 6578
6215 6179 7162
6216 6032 600 
6217 2413 7477
6218 1268 9744
6219 6890 6239
6220 6570 141 
6221 2562 6122
6222 1002 7189
6223 3194 9310
6224 144  5455
6225 3128 4222
6226 6415 2552
6227 5568 7838
6228 333  9652
6229 6424 6901
6230 6400 738 
6231 4886 3842
6232 692  9347
6233 9477 8369
6234 7465 3651
6235 4571 7283
6236 3182 6981
6237 1911 9922
6238 7650 7362
6239 4922 7476
6240 2063 8255
6241 3970 8046
6242 41   7001
6243 9125 5470
6244 4797 7358
6245 9181 2090
6246 9825 2479
6247 820  9256
6248 8158 68  
6249 6394 9197
6250 7851 620 
6251 9352 7884
6252 5620 1958
6253 3737 3125
6254 6407 8648
6255 7540 4561
6256 374  9947
6257 3508 7103
6258 1385 5084
6259 1147 4781
6260 9664 3088
6261 7176 1681
6262 4635 5279
6263 9417 1912
6264 7384 1280
6265 2686 3905
6266 7343 6071
6267 2971 2971
6268 2505 1341
6269 612  8289
6270 9150 7532
6271 224  6774
6272 2995 1874
6273 847  9055
6274 8441 7673
6275 329  5681
6276 5850 1834
6277 6327 4763
6278 5300 9223
6279 6680 8610
6280 165  3040
6281 7548 5179
6282 1101 8854
6283 6826 3592
6284 215  5194
6285 7031 5148
6286 4223 8051
6287 3392 998 
6288 6343 2783
6289 7015 5468
6290 5195 8367
6291 8862 6184
6292 2452 3806
6293 6860 6693
6294 2331 4616
6295 1874 1684
6296 7764 667 
6297 961  1145
6298 8820 8024
6299 1481 7818
6300 8498 9185
6301 8115 5384
6302 3292 9500
6303 1637 9434
6304 6126 2659
6305 4642 7408
6306 7871 5373
6307 3019 8158
6308 5647 4831
6309 662  7591
6310 7237 4993
6311 2291 4585
6312 8533 565 
6313 5645 9870
6314 6007 9824
6315 6068 4841
6316 3999 4226
6317 3316 2089
6318 1836 8393
6319 4954 3027
6320 6439 289 
6321 1145 4184
6322 8666 7772
6323 222  2859
6324 2090 1038
6325 9016 1866
6326 6121 1882
6327 6569 5280
6328 3127 221 
6329 2342 5055
6330 1271 7394
6331 8306 7441
6332 9619 9775
6333 9640 787 
6334 3816 7218
6335 3479 6956
6336 2822 2545
6337 9951 2410
6338 7889 2580
6339 7112 2292
6340 1371 6064
6341 5516 6411
6342 3958 8486
6343 5946 1240
6344 8583 7150
6345 6104 3304
6346 1457 7401
6347 1014 2235
6348 7225 6981
6349 4754 1181
6350 3702 6504
6351 4904 9095
6352 3826 8297
6353 7028 1970
6354 9077 1952
6355 4587 9186
6356 2509 1959
6357 8468 2550
6358 8609 4036
6359 4894 5238
6360 1878 4423
6361 4173 914 
6362 1208 8717
6363 4307 9751
6364 2990 2516
6365 7414 3770
6366 2622 279 
6367 2443 6487
6368 2919 7664
6369 8208 2809
6370 7000 8693
6371 7800 3433
6372 7614 6092
6373 9295 11  
6374 7768 5187
6375 3714 1945
6376 6370 9678
6377 5375 6891
6378 4215 7763
6379 5904 6596
6380 6369 9042
6381 5808 7800
6382 2763 3207
6383 8754 1357
6384 7952 2783
6385 4943 5788
6386 3954 8838
6387 5308 1998
6388 7438 981 
6389 4388 3765
6390 2052 7551
6391 8690 3550
6392 659  4585
6393 5592 7920
6394 3675 6892
6395 9729 6117
6396 3291 7400
6397 6369 875 
6398 7961 8054
6399 7994 1787
6400 2118 7083
6401 5897 9353
6402 9147 5802
6403 6754 3001
6404 6949 9500
6405 4631 9234
6406 882  8623
6407 8730 1993
6408 9447 7609
6409 9921 4581
6410 3670 7622
6411 2708 6386
6412 5404 8076
6413 5607 2199
6414 9065 6234
6415 7070 7831
6416 8437 6916
6417 1609 843 
6418 4213 4138
6419 198  1274
6420 3602 704 
6421 7484 9419
6422 6090 2961
6423 288  3886
6424 9174 3153
6425 1935 1263
6426 3477 3149
6427 1834 1218
6428 2878 7654
6429 5519 7953
6430 6602 5000
6431 6441 2093
6432 9385 315 
6433 6942 2486
6434 3852 7966
6435 765  9869
6436 1837 2314
6437 605  4347
6438 6152 8333
6439 7910 4518
6440 8121 7576
6441 4207 6861
6442 9477 3530
6443 4670 5310
6444 262  4169
6445 6909 8572
6446 5121 8886
6447 3917 6371
6448 8457 4061
6449 6837 9162
6450 5700 5992
6451 4866 8919
6452 3561 4740
6453 8467 2546
6454 1260 6735
6455 2891 9064
6456 770  2656
6457 5922 4588
6458 2656 5418
6459 4533 9648
6460 3696 7667
6461 1843 4638
6462 1946 594 
6463 719  9047
6464 9756 4375
6465 7694 9746
6466 3237 2579
6467 7329 7881
6468 1364 82  
6469 8223 1384
6470 982  4433
6471 2492 9910
6472 5026 7053
6473 1192 7942
6474 2892 5846
6475 7716 3228
6476 6966 3539
6477 6728 2601
6478 2944 6603
6479 8919 6165
6480 3862 3658
6481 7125 9159
6482 2956 7968
6483 8277 8865
6484 1666 8   
6485 2302 4741
6486 6543 825 
6487 1295 7865
6488 4477 2529
6489 478  3998
6490 5427 9984
6491 2526 8996
6492 2206 6386
6493 8664 4415
6494 470  438 
6495 182  8987
6496 92   7248
6497 1641 99  
6498 1436 9686
6499 4692 4042
6500 7436 8753
6501 6122 6985
6502 3751 9338
6503 1027 1399
6504 7443 6727
6505 1375 303 
6506 8472 9186
6507 5632 4778
6508 9525 2616
6509 7114 9041
6510 2836 5493
6511 3639 9372
6512 9812 4639
6513 2946 2772
6514 8266 1006
6515 8168 6449
6516 8274 2669
6517 5835 6436
6518 4787 2094
6519 9219 8797
6520 2999 6310
6521 8597 1880
6522 7027 1327
6523 8595 7744
6524 6270 1019
6525 5345 5218
6526 2072 5136
6527 2129 2005
6528 7507 1963
6529 4525 9879
6530 276  2201
6531 1435 8207
6532 4817 8515
6533 3497 9374
6534 215  2821
6535 5889 6455
6536 2468 6884
6537 7878 4704
6538 421  6863
6539 6230 9374
6540 9849 2570
6541 4946 4246
6542 5786 8251
6543 1239 1643
6544 854  3023
6545 3431 6644
6546 1467 1537
6547 2104 8494
6548 8578 3138
6549 561  5882
6550 3456 6270
6551 7119 9359
6552 3012 9994
6553 175  2204
6554 8473 9248
6555 976  7509
6556 3501 6568
6557 6698 1794
6558 5372 3871
6559 2845 1276
6560 8650 594 
6561 6524 2708
6562 5601 8969
6563 8678 2648
6564 3597 5107
6565 6921 946 
6566 8719 2194
6567 7243 1319
6568 3392 4372
6569 7924 5188
6570 2206 4623
6571 1615 9286
6572 234  8564
6573 9157 1152
6574 5855 3491
6575 5121 2868
6576 3424 1782
6577 328  139 
6578 6163 5376
6579 3134 7640
6580 3816 6051
6581 3956 7660
6582 9335 8437
6583 3277 1545
6584 8923 4002
6585 3460 7539
6586 3724 2803
6587 3561 7703
6588 7345 3074
6589 3633 630 
6590 272  2451
6591 8893 6640
6592 7929 6065
6593 4049 4446
6594 5223 6098
6595 6145 9362
6596 6092 4400
6597 4473 6613
6598 4910 1256
6599 7809 7745
6600 4446 7661
6601 6528 470 
6602 7097 1067
6603 7560 6572
6604 8912 5684
6605 610  7025
6606 2978 2938
6607 8758 8661
6608 5473 4949
6609 3603 358 
6610 195  5664
6611 3460 1677
6612 616  7142
6613 1277 7520
6614 9545 3646
6615 7035 1643
6616 4030 7929
6617 8574 1906
6618 7802 9535
6619 5996 4734
6620 1359 6629
6621 9943 3780
6622 6828 9575
6623 39   3493
6624 7416 1303
6625 3971 1636
6626 5104 8893
6627 4636 4339
6628 9773 5516
6629 6193 2728
6630 2713 952 
6631 6416 3837
6632 2680 820 
6633 4486 2532
6634 4347 7829
6635 3367 3995
6636 572  7223
6637 4929 8433
6638 7448 4046
6639 4051 6754
6640 950  4988
6641 8496 216 
6642 8002 5188
6643 2590 5435
6644 3360 2358
6645 1445 3719
6646 9115 2381
6647 2169 8675
6648 6531 8389
6649 1942 2708
6650 9541 9513
6651 4273 4310
6652 7552 7881
6653 4216 2037
6654 2305 3736
6655 7526 1863
6656 9797 5585
6657 185  2158
6658 5580 1898
6659 6727 8468
6660 8259 4719
6661 7960 2940
6662 9272 9222
6663 2962 8612
6664 4645 6093
6665 8304 8023
6666 9737 7243
6667 8305 2618
6668 7548 2956
6669 336  6631
6670 414  6787
6671 9852 3773
6672 6338 5557
6673 6275 6359
6674 2597 9837
6675 8987 7942
6676 8546 5558
6677 9189 4955
6678 1798 3049
6679 7109 5386
6680 8757 4776
6681 1596 3616
6682 1499 8959
6683 5201 4016
6684 813  3914
6685 3483 9504
6686 2973 56  
6687 1451 4953
6688 7720 9871
6689 7138 3280
6690 8696 5512
6691 149  8598
6692 6977 111 
6693 110  6444
6694 152  4856
6695 4400 8505
6696 2189 4862
6697 2418 8312
6698 5282 9310
6699 7351 3650
6700 6961 4671
6701 7398 8916
6702 2058 8866
6703 7777 2978
6704 3990 9474
6705 7789 99  
6706 900  4133
6707 2678 8081
6708 7343 5407
6709 2008 9475
6710 3715 764 
6711 8742 996 
6712 109  1943
6713 5367 5482
6714 1130 6694
6715 422  7519
6716 9354 4345
6717 8980 6176
6718 6150 3369
6719 1566 6543
6720 2095 3539
6721 231  4610
6722 9453 9356
6723 5472 6362
6724 7981 7539
6725 449  6934
6726 8471 3031
6727 5646 6683
6728 7325 5623
6729 608  3748
6730 7341 5110
6731 1115 2263
6732 2253 2734
6733 6388 7167
6734 5763 8944
6735 2721 769 
6736 3595 2183
6737 8321 7769
6738 2051 2814
6739 6504 6865
6740 5587 32  
6741 4372 2902
6742 6517 641 
6743 3182 5465
6744 4987 8464
6745 2177 7077
6746 9306 7665
6747 825  554 
6748 6899 8829
6749 4276 693 
6750 9130 1514
6751 8984 6427
6752 7295 1708
6753 303  1259
6754 7445 901 
6755 5473 5863
6756 3388 5703
6757 7602 2164
6758 7467 8166
6759 2019 5976
6760 9364 9817
6761 8934 5419
6762 8820 258 
6763 359  4184
6764 5503 6321
6765 8083 1644
6766 6816 6248
6767 4428 4822
6768 7464 3652
6769 3913 9712
6770 199  3109
6771 7509 2093
6772 1378 849 
6773 5130 4712
6774 7133 7582
6775 3157 5399
6776 8906 1196
6777 1444 8571
6778 9881 1804
6779 6928 9792
6780 2553 5870
6781 2395 1664
6782 7550 8908
6783 7083 4773
6784 3834 3804
6785 2202 7391
6786 8404 3100
6787 7379 7403
6788 1510 8816
6789 5939 2066
6790 2789 7946
6791 9389 7224
6792 6373 43  
6793 165  8647
6794 8574 9858
6795 248  568 
6796 1260 8606
6797 959  4096
6798 9231 7725
6799 2752 2336
6800 7601 3936
6801 9281 8264
6802 1288 5318
6803 9673 5048
6804 2243 2146
6805 6178 2890
6806 7859 9913
6807 9237 849 
6808 2615 4103
6809 237  3969
6810 3524 4071
6811 7100 7915
6812 522  7184
6813 2691 510 
6814 5831 7354
6815 1033 3976
6816 5104 3087
6817 4606 2693
6818 58   9456
6819 1964 2729
6820 9225 3398
6821 3359 4114
6822 1679 4515
6823 5661 5332
6824 8874 3087
6825 1480 1757
6826 7398 3119
6827 7016 8693
6828 4697 27  
6829 7246 3738
6830 4367 1605
6831 4105 6022
6832 2995 6909
6833 8645 5875
6834 6466 7971
6835 1484 1930
6836 1775 9297
6837 8003 1359
6838 3693 4673
6839 4296 1469
6840 5374 4287
6841 5930 5473
6842 9711 1938
6843 329  5583
6844 5976 6511
6845 7592 6703
6846 2365 2502
6847 8567 4869
6848 6688 5497
6849 9367 3324
6850 3672 5413
6851 7004 7830
6852 4778 6094
6853 3947 2841
6854 6311 7357
6855 5448 4857
6856 8932 3443
6857 6769 32  
6858 8873 3926
6859 1741 1448
6860 4854 3586
6861 9359 567 
6862 6671 8693
6863 2931 5816
6864 2390 1319
6865 9631 9048
6866 8132 2529
6867 3042 8817
6868 7854 3830
6869 4873 6714
6870 2306 1712
6871 5890 3837
6872 4109 7833
6873 6614 4913
6874 7513 4500
6875 5688 2860
6876 4356 9789
6877 9719 936 
6878 2384 6677
6879 3396 6038
6880 8350 5197
6881 6746 4306
6882 4066 8733
6883 238  7679
6884 1466 7808
6885 1612 7558
6886 6050 5123
6887 2270 5296
6888 3356 5211
6889 9333 7468
6890 4925 4998
6891 8663 3984
6892 740  5455
6893 3405 1498
6894 6667 9500
6895 8078 5901
6896 8977 7188
6897 1867 7841
6898 2423 9280
6899 1146 9361
6900 7580 8716
6901 5755 105 
6902 4822 8064
6903 8019 4968
6904 6010 5070
6905 1061 2156
6906 8636 4942
6907 5103 4841
6908 1770 1910
6909 5961 3219
6910 776  7695
6911 4334 1821
6912 3927 1596
6913 6610 7077
6914 5545 5992
6915 9084 2754
6916 6900 2310
6917 3252 4147
6918 1207 9103
6919 2921 877 
6920 3895 6076
6921 7456 2122
6922 9074 7966
6923 7012 3006
6924 6384 4615
6925 6054 8391
6926 6234 4861
6927 3145 6344
6928 3046 817 
6929 3847 4923
6930 9758 8562
6931 794  9683
6932 2365 122 
6933 5636 8041
6934 6687 7598
6935 4187 7271
6936 9562 9566
6937 8700 9933
6938 7618 3022
6939 2373 177 
6940 4496 4694
6941 8001 5333
6942 8225 7096
6943 9917 7069
6944 5575 9243
6945 8000 2751
6946 2081 1012
6947 2723 4941
6948 5962 1479
6949 1964 506 
6950 5856 8947
6951 1722 2024
6952 6522 4264
6953 8528 7136
6954 530  3878
6955 5377 4892
6956 7754 8826
6957 4760 3863
6958 6251 1138
6959 8590 1597
6960 6248 928 
6961 2490 1954
6962 1025 6409
6963 8511 702 
6964 5467 3322
6965 514  6973
6966 4727 3990
6967 8022 1168
6968 2431 8891
6969 2639 5370
6970 3984 2135
6971 977  2384
6972 2209 9365
6973 5622 3927
6974 7805 4671
6975 3962 7186
6976 8933 2654
6977 5532 4478
6978 5328 8388
6979 2329 6495
6980 8828 3356
6981 8    5952
6982 5559 3508
6983 6838 2588
6984 7491 3598
6985 8131 4345
6986 6854 1638
6987 2861 990 
6988 7213 7915
6989 7252 1580
6990 351  2149
6991 7865 6611
6992 8938 7257
6993 665  7809
6994 7175 8896
6995 4919 1201
6996 4518 9919
6997 287  8879
6998 4918 4815
6999 6998 2689
7000 4443 2621
7001 3537 8495
7002 7176 6592
7003 5734 1568
7004 9654 9017
7005 159  1446
7006 5735 5818
7007 9858 4479
7008 1633 4539
7009 7609 3942
7010 4442 8840
7011 3053 3080
7012 5347 5722
7013 4035 9585
7014 5159 2871
7015 1470 333 
7016 6182 4426
7017 3886 5697
7018 4076 9412
7019 4995 1619
7020 9412 6453
7021 6610 1045
7022 1751 3058
7023 2977 5269
7024 2971 9614
7025 9518 1054
7026 4615 9668
7027 5954 5091
7028 4072 8039
7029 3315 9030
7030 1338 8407
7031 561  7458
7032 2052 5814
7033 1840 455 
7034 6179 5654
7035 3825 5440
7036 9579 4829
7037 7436 9399
7038 3081 9369
7039 594  3587
7040 7545 5617
7041 7811 6988
7042 2885 6891
7043 9846 6424
7044 845  109 
7045 3032 16  
7046 7975 7486
7047 8391 1169
7048 1012 6320
7049 7654 659 
7050 7747 5868
7051 4903 4603
7052 1077 6723
7053 3443 1056
7054 4617 6515
7055 7890 9901
7056 111  5623
7057 5503 5936
7058 1454 1825
7059 6353 5091
7060 9918 824 
7061 2846 4909
7062 3887 8081
7063 6345 3872
7064 4167 7226
7065 5587 558 
7066 205  1332
7067 6441 1510
7068 4711 4503
7069 8394 9862
7070 3617 1073
7071 6012 3425
7072 6393 8355
7073 800  2333
7074 7709 9532
7075 3988 227 
7076 7611 9561
7077 6251 6145
7078 2271 121 
7079 6812 4653
7080 5210 4559
7081 1256 4098
7082 257  9261
7083 348  2069
7084 7325 4378
7085 7475 6926
7086 4614 7732
7087 6649 3988
7088 10000 3665
7089 4208 5233
7090 3447 8435
7091 2592 3712
7092 3630 5854
7093 9564 5245
7094 7894 8433
7095 8218 6460
7096 2331 2885
7097 2365 537 
7098 7678 4600
7099 2840 7677
7100 6575 8706
7101 3744 5254
7102 4951 7733
7103 7098 2835
7104 597  6707
7105 8331 6704
7106 9910 5221
7107 4060 7278
7108 619  9678
7109 2852 8629
7110 1074 4139
7111 22   2142
7112 6480 4913
7113 3686 416 
7114 1537 4325
7115 4337 974 
7116 5333 9331
7117 5984 4220
7118 5263 633 
7119 8368 7144
7120 257  6065
7121 5504 4171
7122 7190 7570
7123 6712 9964
7124 4764 5804
7125 6465 151 
7126 1193 386 
7127 2741 8799
7128 3315 2566
7129 1016 3802
7130 9020 84  
7131 3665 7127
7132 5836 4444
7133 216  1321
7134 6931 957 
7135 7826 2222
7136 7952 9041
7137 2508 8410
7138 530  7621
7139 3632 4925
7140 2076 8229
7141 7811 3737
7142 2125 5667
7143 519  5613
7144 764  2822
7145 5869 8128
7146 6009 2684
7147 9585 5484
7148 2921 9375
7149 7634 6879
7150 9658 6310
7151 4541 2117
7152 6790 2568
7153 3241 4265
7154 2216 7227
7155 5925 5520
7156 5173 5723
7157 687  9694
7158 9785 4903
7159 9540 5708
7160 3234 9123
7161 3435 3329
7162 6410 4890
7163 745  709 
7164 7722 1220
7165 605  4905
7166 6003 1041
7167 3704 2469
7168 683  4416
7169 1259 5208
7170 5979 1209
7171 1147 1164
7172 8786 2846
7173 863  8831
7174 7997 2833
7175 2603 3403
7176 9300 4863
7177 2368 5784
7178 2445 2607
7179 3406 7974
7180 548  9024
7181 3734 7128
7182 6284 4620
7183 5546 8995
7184 2264 9748
7185 806  6281
7186 1047 8426
7187 7834 631 
7188 7446 1605
7189 5898 120 
7190 9541 2874
7191 7735 5689
7192 7501 1099
7193 67   9241
7194 5483 6597
7195 7296 1305
7196 2244 278 
7197 7024 5901
7198 8086 9854
7199 6491 2240
7200 4914 3555
7201 1755 9554
7202 1710 7527
7203 3435 8590
7204 3242 5984
7205 7477 2381
7206 8062 141 
7207 9796 7776
7208 7286 5667
7209 4418 3132
7210 8806 1340
7211 4740 813 
7212 4682 9795
7213 7025 7880
7214 7353 773 
7215 147  9914
7216 676  6043
7217 6973 6347
7218 554  2063
7219 8133 7603
7220 8325 281 
7221 2069 5322
7222 5983 7298
7223 7682 1848
7224 8251 3741
7225 5306 1720
7226 5882 8890
7227 7548 8746
7228 6596 1104
7229 8939 7264
7230 2929 7384
7231 1180 6560
7232 6976 9321
7233 5644 8380
7234 1970 5738
7235 2607 6060
7236 4136 1216
7237 1542 9795
7238 2913 8616
7239 5593 1198
7240 4306 316 
7241 2396 8161
7242 7045 6998
7243 6920 7013
7244 9782 757 
7245 1810 4930
7246 8010 3864
7247 5218 9229
7248 2701 5682
7249 3001 8099
7250 7509 9999
7251 9796 4435
7252 7111 2096
7253 91   4068
7254 8236 1940
7255 3418 1422
7256 2954 8580
7257 1857 3692
7258 7553 2839
7259 5308 2659
7260 6512 3232
7261 3776 7056
7262 4342 3069
7263 6270 5255
7264 1023 5674
7265 4325 2930
7266 7734 1127
7267 6455 9415
7268 4982 155 
7269 2460 4407
7270 7545 7168
7271 1747 7265
7272 8688 2253
7273 5805 6497
7274 3407 6134
7275 8208 3620
7276 693  3361
7277 3732 6978
7278 1992 4564
7279 1727 2904
7280 5983 6932
7281 8954 9168
7282 2242 5636
7283 5932 2723
7284 6022 2853
7285 3137 1061
7286 161  806 
7287 6770 181 
7288 1545 3367
7289 4352 3552
7290 1919 3186
7291 4417 2042
7292 9589 1441
7293 8544 1265
7294 58   3064
7295 1790 8545
7296 7153 5226
7297 9253 9292
7298 5884 9879
7299 5433 3820
7300 190  6161
7301 9054 5221
7302 3536 8903
7303 4434 7617
7304 6113 4863
7305 2410 2626
7306 994  9011
7307 8146 6597
7308 2873 6171
7309 4395 3762
7310 4519 6646
7311 6962 6901
7312 4654 4203
7313 6762 2238
7314 9545 4809
7315 9309 5132
7316 7373 4467
7317 441  5251
7318 6722 6460
7319 7544 1947
7320 8698 7934
7321 1645 947 
7322 7378 8447
7323 7984 7662
7324 4219 7580
7325 9542 560 
7326 7604 1040
7327 7640 6173
7328 1205 7286
7329 4033 3534
7330 8927 4209
7331 3031 1460
7332 4988 5268
7333 9121 7965
7334 1333 1587
7335 4424 9848
7336 3215 1119
7337 194  6858
7338 9    8074
7339 1754 127 
7340 4617 9400
7341 3760 7148
7342 3857 9971
7343 7963 6939
7344 5648 2762
7345 9232 1469
7346 286  534 
7347 9403 1104
7348 1888 8721
7349 8672 1662
7350 4080 1070
7351 2357 239 
7352 1592 313 
7353 7313 9050
7354 3325 3599
7355 2005 3719
7356 9126 6002
7357 8892 9865
7358 9959 690 
7359 1013 1406
7360 8103 7897
7361 9886 9427
7362 1499 5448
7363 5272 8864
7364 465  142 
7365 8814 1867
7366 2714 635 
7367 2759 4768
7368 1804 8557
7369 9714 4516
7370 7154 8100
7371 3125 5476
7372 8029 5370
7373 7114 9954
7374 8679 588 
7375 9700 2042
7376 8342 612 
7377 2838 3666
7378 4461 8904
7379 8345 3145
7380 4495 1748
7381 5917 250 
7382 5968 9695
7383 949  3138
7384 4158 5320
7385 8138 8373
7386 5453 7914
7387 1325 6304
7388 5688 6888
7389 3658 2983
7390 4165 7086
7391 8584 19  
7392 2525 9381
7393 5463 1479
7394 844  5857
7395 9520 3069
7396 369  6252
7397 2024 7910
7398 1625 7413
7399 8253 2407
7400 9487 7415
7401 4011 3836
7402 5161 7929
7403 9518 2213
7404 8321 1548
7405 1979 5199
7406 2822 2122
7407 4966 5940
7408 7191 3597
7409 9062 2760
7410 269  5084
7411 2960 533 
7412 7339 6437
7413 2556 1117
7414 6005 2199
7415 4207 1747
7416 3100 4775
7417 1711 4613
7418 2106 2739
7419 1521 530 
7420 9351 1007
7421 8060 8355
7422 8639 7669
7423 9016 9266
7424 4647 5068
7425 3964 2312
7426 5260 4965
7427 3394 5645
7428 2695 4400
7429 205  8971
7430 9610 9823
7431 8004 6410
7432 3464 9910
7433 4436 5023
7434 3427 9482
7435 3597 165 
7436 5832 1989
7437 9209 5840
7438 7658 1886
7439 5515 753 
7440 216  6364
7441 1342 7280
7442 9438 5560
7443 22   181 
7444 882  3412
7445 4131 1819
7446 6817 4863
7447 8077 1100
7448 8878 1215
7449 3745 6935
7450 5956 1103
7451 5352 1355
7452 368  8962
7453 3683 2683
7454 5436 5075
7455 7036 275 
7456 6330 800 
7457 9191 8653
7458 4404 6899
7459 1311 1610
7460 7164 574 
7461 8487 780 
7462 156  8552
7463 3134 2198
7464 5263 7997
7465 7484 908 
7466 7152 9778
7467 164  3902
7468 8724 4295
7469 2598 2722
7470 5299 5750
7471 2136 2924
7472 4042 5053
7473 6423 5509
7474 8629 4790
7475 5042 8445
7476 5728 3007
7477 3185 8108
7478 2445 9225
7479 2057 3150
7480 7007 9842
7481 8465 3786
7482 7937 4813
7483 6951 7622
7484 9685 8599
7485 9838 4896
7486 9501 2552
7487 9596 5787
7488 5838 1666
7489 8917 973 
7490 1264 3782
7491 2255 7469
7492 2570 1671
7493 1508 8718
7494 5166 1134
7495 3711 1923
7496 3267 2882
7497 3103 6045
7498 6029 2509
7499 8081 1518
7500 7054 3518
7501 8578 1202
7502 5263 5859
7503 6732 2111
7504 2797 4669
7505 2881 3082
7506 2653 1306
7507 5678 1366
7508 5465 5239
7509 2285 9704
7510 960  6752
7511 4669 729 
7512 691  4584
7513 1495 6480
7514 8614 6566
7515 5682 4829
7516 3201 512 
7517 7110 4655
7518 9866 7151
7519 7064 3459
7520 9381 9716
7521 4570 4644
7522 1712 1711
7523 5715 5920
7524 6464 4707
7525 3725 3882
7526 3642 6479
7527 6552 397 
7528 665  5602
7529 8949 3949
7530 3576 4530
7531 2495 5956
7532 32   345 
7533 8936 9446
7534 8401 1840
7535 5726 8513
7536 515  562 
7537 5222 6839
7538 2392 4162
7539 7723 1390
7540 5593 5174
7541 4973 6656
7542 6133 2003
7543 6272 7388
7544 7702 8941
7545 2686 5123
7546 3535 4736
7547 727  6615
7548 1389 5146
7549 7407 6215
7550 9785 9021
7551 4115 9714
7552 9382 4018
7553 1698 1437
7554 8645 8206
7555 9782 5618
7556 8487 6301
7557 3137 9109
7558 9005 4108
7559 5754 482 
7560 2925 8095
7561 7574 9728
7562 8600 8543
7563 7613 7398
7564 3350 1389
7565 6617 876 
7566 4931 4659
7567 7959 6939
7568 6330 1082
7569 1749 5051
7570 3791 2783
7571 2341 6489
7572 523  85  
7573 1113 789 
7574 617  2726
7575 506  7547
7576 2131 9075
7577 1763 8767
7578 6583 7462
7579 6215 9992
7580 761  6205
7581 8352 1114
7582 5797 6645
7583 4540 7949
7584 270  163 
7585 8915 3178
7586 3158 1788
7587 6133 8628
7588 5468 6244
7589 6875 4571
7590 8736 9850
7591 7710 6549
7592 8013 9146
7593 7003 9523
7594 8265 2365
7595 6528 8933
7596 8454 2225
7597 1068 8196
7598 5654 3431
7599 2467 2798
7600 389  2991
7601 2067 8268
7602 2513 5433
7603 2438 9765
7604 6965 5614
7605 8713 3798
7606 1661 1665
7607 1759 7900
7608 1566 4012
7609 3348 6838
7610 5123 7574
7611 3028 6113
7612 2117 6041
7613 9442 9325
7614 5369 7707
7615 4546 6757
7616 4448 3784
7617 7500 7798
7618 3514 4436
7619 1406 893 
7620 8931 7477
7621 9071 4593
7622 4868 3081
7623 7855 9375
7624 9326 6534
7625 9511 4132
7626 3961 1908
7627 2787 81  
7628 1875 52  
7629 2834 7671
7630 736  7640
7631 235  7939
7632 3677 2773
7633 1589 2755
7634 8932 9206
7635 108  1014
7636 195  318 
7637 3935 5014
7638 7609 8590
7639 7534 3668
7640 8598 4834
7641 5537 7779
7642 1921 9125
7643 5958 8493
7644 5147 7612
7645 1826 423 
7646 1974 9268
7647 7577 0   
7648 6129 7276
7649 5664 356 
7650 7693 9796
7651 6629 6738
7652 808  8937
7653 9916 2874
7654 2630 529 
7655 2703 1308
7656 1114 6701
7657 9415 7478
7658 6316 3522
7659 9545 3137
7660 547  7169
7661 2291 5538
7662 5640 1331
7663 3154 3090
7664 560  7289
7665 3068 9690
7666 9660 4679
7667 2274 5794
7668 2005 7559
7669 2604 591 
7670 3911 1164
7671 4247 2632
7672 9346 7394
7673 8698 4592
7674 3721 9390
7675 2091 578 
7676 976  9271
7677 2201 5735
7678 2441 7088
7679 3866 1233
7680 4302 6935
7681 2863 17  
7682 3904 4732
7683 9438 2741
7684 9885 2026
7685 2957 125 
7686 5262 4469
7687 2545 6893
7688 6524 7001
7689 6553 6492
7690 8932 2124
7691 9614 1826
7692 7999 4444
7693 5299 7881
7694 8008 7606
7695 1151 1914
7696 4401 7807
7697 7197 1142
7698 6296 6932
7699 7840 9307
7700 6544 8892
7701 5398 3073
7702 2396 492 
7703 8044 6409
7704 7469 5995
7705 318  6892
7706 5101 8045
7707 1945 9523
7708 5832 1216
7709 2041 3361
7710 9136 1400
7711 666  7430
7712 4123 7453
7713 3765 5752
7714 686  1788
7715 6708 1879
7716 543  3741
7717 1088 6522
7718 2851 8107
7719 5481 6758
7720 7112 2627
7721 2907 8206
7722 4591 451 
7723 6926 5379
7724 6171 8796
7725 9550 1162
7726 941  7288
7727 3578 8124
7728 9208 3417
7729 2055 3935
7730 983  4826
7731 5876 402 
7732 7249 1933
7733 7515 5526
7734 3484 432 
7735 1126 8540
7736 8422 1621
7737 3506 7591
7738 4229 128 
7739 2382 6549
7740 377  6282
7741 2374 8552
7742 8731 4590
7743 370  5304
7744 3306 5904
7745 852  5825
7746 4254 4040
7747 5972 7834
7748 4604 9823
7749 3780 5711
7750 7704 5723
7751 4628 2420
7752 1315 5845
7753 9251 4712
7754 2144 1680
7755 3587 8673
7756 2330 6947
7757 9597 160 
7758 8550 793 
7759 7319 1624
7760 8073 8857
7761 4517 2942
7762 3420 9599
7763 2948 7443
7764 2112 6150
7765 407  2234
7766 4394 1178
7767 1432 6807
7768 9916 1306
7769 9793 2837
7770 3765 3161
7771 4671 4390
7772 2157 4737
7773 699  4017
7774 9062 1137
7775 3481 727 
7776 666  7008
7777 594  8091
7778 50   9981
7779 6660 4649
7780 8816 6953
7781 8138 4857
7782 9655 1788
7783 8653 4452
7784 8045 7611
7785 7942 3715
7786 5324 8703
7787 2043 890 
7788 1910 4630
7789 5067 9289
7790 9245 1966
7791 5614 4753
7792 453  901 
7793 9088 6735
7794 1403 9138
7795 6172 9743
7796 2049 7004
7797 6654 2564
7798 8471 8821
7799 9361 8473
7800 3401 5330
7801 852  3311
7802 1766 9359
7803 3013 5251
7804 5937 5990
7805 4259 3188
7806 7800 8472
7807 8575 4574
7808 2587 7328
7809 1754 3736
7810 5977 8938
7811 597  3726
7812 2962 8871
7813 6641 3427
7814 1259 8198
7815 1607 2182
7816 8490 1734
7817 7651 9099
7818 6631 2841
7819 7620 6271
7820 3553 7947
7821 6758 1159
7822 4671 6988
7823 63   759 
7824 121  7614
7825 2404 307 
7826 5475 5695
7827 2865 1196
7828 2862 9737
7829 5430 4628
7830 5764 5916
7831 5983 2984
7832 9054 8437
7833 5756 8591
7834 8793 3616
7835 6605 5971
7836 6323 2127
7837 9246 9105
7838 1246 4095
7839 7532 2448
7840 6658 2011
7841 6935 5380
7842 9845 93  
7843 7085 7548
7844 5869 1340
7845 9609 6520
7846 2620 2841
7847 5538 7217
7848 5869 8684
7849 8086 311 
7850 5060 3145
7851 700  6484
7852 7021 4993
7853 5314 7007
7854 6716 5696
7855 6413 9524
7856 6710 127 
7857 5721 7644
7858 674  4154
7859 1587 6867
7860 8886 1403
7861 2165 8329
7862 6353 5430
7863 7396 9491
7864 9919 3364
7865 8576 9797
7866 863  9368
7867 153  2548
7868 3914 509 
7869 1311 3261
7870 396  6336
7871 5540 9135
7872 4774 9465
7873 7828 8646
7874 5546 3649
7875 2670 2496
7876 3312 6194
7877 65   3738
7878 8760 6202
7879 8634 479 
7880 2193 2070
7881 3853 6889
7882 2965 9841
7883 6735 4506
7884 4537 7837
7885 454  3719
7886 2111 1704
7887 4256 1327
7888 7358 7875
7889 3921 8640
7890 8534 1263
7891 9018 9471
7892 2124 6161
7893 2234 4304
7894 6271 7392
7895 7982 7016
7896 3200 4833
7897 9702 833 
7898 2737 1099
7899 1459 1188
7900 1241 3675
7901 8398 7947
7902 6757 8799
7903 1564 8829
7904 9026 6305
7905 4760 6884
7906 4449 4645
7907 6737 4814
7908 3750 8873
7909 2182 1225
7910 7784 8119
7911 5334 6596
7912 621  4988
7913 2795 245 
7914 6598 5039
7915 3078 9861
7916 5270 6200
7917 5193 3233
7918 3642 7004
7919 2724 5718
7920 9074 233 
7921 7267 3133
7922 3043 8893
7923 4922 4401
7924 8706 4187
7925 5033 2209
7926 8533 7516
7927 6582 1978
7928 235  949 
7929 1130 2582
7930 7329 5055
7931 6626 4666
7932 1486 2684
7933 7251 6899
7934 601  9236
7935 8636 9248
7936 3260 524 
7937 3686 6606
7938 2278 1479
7939 7536 3359
7940 3364 7955
7941 1931 6016
7942 6785 8979
7943 8301 9543
7944 2312 775 
7945 2388 5093
7946 4166 4806
7947 2070 1520
7948 1186 630 
7949 7846 2189
7950 8975 1129
7951 959  3198
7952 6432 508 
7953 4825 6596
7954 609  6916
7955 1000 5620
7956 9571 3593
7957 1953 1609
7958 6897 9452
7959 6067 4301
7960 5953 8637
7961 5621 8743
7962 9880 3541
7963 6616 9608
7964 6650 9684
7965 1349 6768
7966 4112 8803
7967 1668 8890
7968 9074 9999
7969 130  9727
7970 630  719 
7971 9532 2518
7972 6629 4601
7973 9651 4244
7974 1367 1887
7975 9838 1029
7976 7222 8250
7977 7749 113 
7978 4813 6537
7979 4173 1079
7980 7681 9283
7981 5232 2378
7982 9349 3277
7983 4125 6861
7984 1898 2679
7985 3268 8735
7986 1625 233 
7987 9107 2251
7988 2747 9390
7989 3081 8322
7990 4132 4719
7991 6223 1319
7992 1778 6388
7993 3842 3185
7994 5333 6990
7995 5947 1018
7996 9496 8143
7997 5153 7237
7998 5530 5482
7999 9860 2975
8000 2406 8881
8001 6584 1297
8002 3727 6248
8003 2976 5210
8004 4931 4947
8005 2289 7867
8006 8573 1584
8007 2043 1089
8008 8028 3614
8009 7318 4364
8010 4987 240 
8011 5435 5735
8012 9591 9873
8013 392  7649
8014 7526 9537
8015 6498 1182
8016 4744 8895
8017 8662 9555
8018 9531 113 
8019 2274 1718
8020 647  2929
8021 7929 8770
8022 7347 9875
8023 5370 7521
8024 3051 6978
8025 2403 4956
8026 3238 2221
8027 8462 6818
8028 5127 9071
8029 1094 3868
8030 4852 7006
8031 129  7883
8032 7851 9670
8033 5587 7186
8034 7934 1870
8035 4699 6383
8036 3479 564 
8037 6455 8038
8038 4251 5026
8039 8564 1041
8040 6833 1573
8041 1780 8919
8042 5828 6822
8043 6405 7084
8044 1335 622 
8045 7889 6361
8046 1889 5556
8047 9825 6015
8048 7415 9342
8049 499  5459
8050 2564 8997
8051 2116 4274
8052 2564 1749
8053 4854 746 
8054 1433 316 
8055 633  1546
8056 3698 1014
8057 507  4692
8058 1188 8805
8059 2538 3110
8060 9822 5142
8061 3006 465 
8062 2009 8961
8063 2050 5321
8064 5754 585 
8065 2244 1531
8066 6938 3743
8067 5155 7794
8068 9958 9303
8069 9716 9096
8070 3183 5604
8071 520  8731
8072 9748 9819
8073 3613 9927
8074 2623 2554
8075 7420 6056
8076 7009 175 
8077 3263 5206
8078 8278 1163
8079 3153 6427
8080 7937 7073
8081 7472 8485
8082 966  1786
8083 1779 7029
8084 6156 1972
8085 3278 4848
8086 3129 8997
8087 3809 1358
8088 8943 6   
8089 3405 7143
8090 2676 5349
8091 3897 9666
8092 3198 8275
8093 5008 7751
8094 4535 7281
8095 7792 405 
8096 2103 5703
8097 6928 5349
8098 6077 247 
8099 9400 3852
8100 2219 6380
8101 3394 3184
8102 22   8852
8103 3852 3694
8104 200  6059
8105 8748 7751
8106 5244 9174
8107 1127 4295
8108 2882 739 
8109 9651 6605
8110 3996 2668
8111 1275 6793
8112 9369 7197
8113 5088 4821
8114 5854 8864
8115 622  6725
8116 4936 7040
8117 7387 3948
8118 2270 7711
8119 3003 9349
8120 2182 8986
8121 3386 1593
8122 2853 3588
8123 6876 1450
8124 5002 2611
8125 6425 4729
8126 7585 4561
8127 9377 7503
8128 5591 4800
8129 8303 4104
8130 1532 1102
8131 7300 1983
8132 1746 1300
8133 6962 5335
8134 4960 820 
8135 4870 97  
8136 3376 4628
8137 4912 5358
8138 6960 3891
8139 503  8397
8140 4312 2366
8141 4379 4428
8142 4711 2507
8143 5517 6753
8144 5026 3164
8145 4706 5321
8146 2229 6683
8147 4207 6720
8148 5774 1423
8149 471  9446
8150 8138 6589
8151 143  9541
8152 2599 4130
8153 4158 5082
8154 4353 9449
8155 4983 4890
8156 9429 4551
8157 2457 2743
8158 7135 6342
8159 9619 1979
8160 9375 3942
8161 5524 6205
8162 905  5701
8163 2296 3542
8164 5263 8629
8165 5037 1658
8166 5254 1401
8167 6026 8577
8168 9939 7643
8169 921  8891
8170 214  5960
8171 8660 5235
8172 2723 6806
8173 8780 2139
8174 8200 9260
8175 6822 5780
8176 9468 5696
8177 1135 4590
8178 126  8181
8179 5148 6120
8180 5780 4956
8181 5034 1751
8182 9199 1550
8183 2906 6841
8184 2861 3115
8185 4405 7513
8186 3099 2235
8187 9465 7313
8188 4525 6809
8189 215  8797
8190 3749 2349
8191 5156 9454
8192 9919 1803
8193 9310 8381
8194 437  2246
8195 9083 5396
8196 7540 2147
8197 8698 7930
8198 3011 7627
8199 5443 3998
8200 8178 7305
8201 7297 8295
8202 3745 4706
8203 1900 8802
8204 6041 1050
8205 6722 940 
8206 7640 3287
8207 4921 4137
8208 8970 5442
8209 6616 9076
8210 1230 2833
8211 7407 6004
8212 4143 7381
8213 9641 3428
8214 8596 4622
8215 9064 4707
8216 8864 146 
8217 2790 5625
8218 566  4575
8219 7066 1266
8220 4040 7577
8221 9705 551 
8222 3135 2219
8223 538  4859
8224 8499 102 
8225 2948 7731
8226 5952 3951
8227 1493 2085
8228 5691 2903
8229 6140 4895
8230 5101 7682
8231 9179 2766
8232 4346 7962
8233 1521 9738
8234 1710 6201
8235 3834 8028
8236 127  2102
8237 7222 4903
8238 8930 7279
8239 8408 3638
8240 658  1150
8241 4909 7979
8242 3546 3422
8243 1037 2020
8244 9454 4153
8245 3544 9338
8246 7432 3889
8247 9940 5562
8248 1784 5544
8249 8395 4868
8250 6452 8054
8251 3792 2308
8252 7158 9804
8253 4894 5968
8254 9047 7396
8255 8983 9279
8256 281  8703
8257 4003 6400
8258 1234 7259
8259 4630 4818
8260 1470 1651
8261 1136 3437
8262 2316 7008
8263 3980 6623
8264 7005 5314
8265 178  6908
8266 787  214 
8267 5023 2391
8268 6030 1898
8269 5735 4472
8270 285  4213
8271 2250 3381
8272 6196 398 
8273 721  8453
8274 3513 6955
8275 5120 9804
8276 8691 6337
8277 8786 3075
8278 6010 7066
8279 7459 3105
8280 28   8329
8281 12   8600
8282 312  1933
8283 9616 7160
8284 4757 6727
8285 5579 6349
8286 9838 2492
8287 4173 9196
8288 7470 6131
8289 3342 626 
8290 8194 3755
8291 7933 7519
8292 6756 8525
8293 6627 1990
8294 2182 2897
8295 3937 6772
8296 585  3822
8297 4255 2929
8298 5354 1842
8299 6580 8202
8300 2964 4327
8301 7706 4362
8302 1850 8272
8303 2817 8544
8304 186  4934
8305 5320 6437
8306 9771 4452
8307 5617 585 
8308 8748 9728
8309 5368 1585
8310 2717 675 
8311 4050 9098
8312 2225 3269
8313 2393 4415
8314 2340 5906
8315 4522 4742
8316 7820 5823
8317 266  2132
8318 5146 4103
8319 7467 6154
8320 2227 8594
8321 3117 8963
8322 5592 582 
8323 9406 8642
8324 789  765 
8325 628  7378
8326 6170 4498
8327 3002 6091
8328 6846 819 
8329 5849 2152
8330 8581 1666
8331 5451 7148
8332 2026 1521
8333 7487 7145
8334 7929 2034
8335 5823 8179
8336 232  1205
8337 7440 8896
8338 1525 9200
8339 7262 1598
8340 7606 6423
8341 9748 5464
8342 3681 8869
8343 9446 6516
8344 4035 5087
8345 216  6304
8346 7239 4355
8347 810  7793
8348 7733 3329
8349 6795 703 
8350 5556 1950
8351 1704 7870
8352 1602 5464
8353 8925 6404
8354 9855 6142
8355 1712 1260
8356 9074 8269
8357 895  6918
8358 9139 2394
8359 3178 5581
8360 5663 3600
8361 7381 5220
8362 7769 547 
8363 4290 5678
8364 1949 5831
8365 6383 1109
8366 2159 3350
8367 5812 3703
8368 499  8450
8369 7064 1175
8370 8566 2410
8371 3672 1268
8372 5169 8670
8373 5671 3338
8374 5128 6279
8375 9228 4802
8376 5829 4582
8377 496  4470
8378 1244 258 
8379 1064 1960
8380 341  5293
8381 377  637 
8382 7039 2020
8383 7270 5441
8384 9379 7403
8385 5388 7177
8386 9133 9432
8387 731  2936
8388 9606 9589
8389 4684 9546
8390 4918 4222
8391 650  2917
8392 3961 6512
8393 8903 7264
8394 8436 8728
8395 4286 4596
8396 3422 1833
8397 6146 8974
8398 8449 9996
8399 3377 221 
8400 4807 8216
8401 6850 4939
8402 8466 2282
8403 3937 7221
8404 1645 7074
8405 3481 4384
8406 4394 2874
8407 7736 5053
8408 8562 9900
8409 2423 10  
8410 4528 7395
8411 7753 4086
8412 6144 3184
8413 9203 4012
8414 3901 6233
8415 8476 3768
8416 354  4477
8417 973  8366
8418 5988 6386
8419 107  4258
8420 5437 6484
8421 5391 3489
8422 1135 2242
8423 1423 404 
8424 2527 7653
8425 4207 2239
8426 6572 8456
8427 6081 5557
8428 3235 7530
8429 6332 1399
8430 9824 8519
8431 8722 890 
8432 1083 4054
8433 1294 2769
8434 2269 1564
8435 2894 6161
8436 8913 2378
8437 5753 9050
8438 500  3240
8439 8983 9694
8440 474  4846
8441 2371 2605
8442 6474 4973
8443 7869 2818
8444 4734 6718
8445 5719 1656
8446 6974 5126
8447 8740 1326
8448 6423 8930
8449 5141 4131
8450 3525 449 
8451 8097 321 
8452 6987 7891
8453 9035 5792
8454 7244 5989
8455 3812 1366
8456 2031 9479
8457 923  5730
8458 8342 9535
8459 9934 4232
8460 3347 8158
8461 7102 463 
8462 5904 8708
8463 9225 9416
8464 2022 4379
8465 3281 8795
8466 1789 6793
8467 6770 7525
8468 8193 402 
8469 1714 4874
8470 4768 1568
8471 4589 7299
8472 6166 8858
8473 8452 6171
8474 9025 2855
8475 46   7970
8476 2578 1943
8477 907  2091
8478 2772 2261
8479 4035 631 
8480 4880 3272
8481 196  4462
8482 1400 9849
8483 6887 3845
8484 7412 8301
8485 6951 1812
8486 6436 7750
8487 3529 9300
8488 4425 8321
8489 8988 8571
8490 2207 3808
8491 5978 82  
8492 2087 1038
8493 9568 6592
8494 5007 692 
8495 7147 5055
8496 4018 5691
8497 3750 4034
8498 1958 9266
8499 922  4347
8500 5975 3305
8501 9868 4818
8502 4243 6517
8503 4158 966 
8504 930  6896
8505 8394 3838
8506 284  6069
8507 3431 1363
8508 7434 5563
8509 9761 9116
8510 2066 2069
8511 1792 9378
8512 3518 8065
8513 7430 842 
8514 7945 5835
8515 91   3139
8516 8064 3611
8517 9983 1190
8518 4447 9320
8519 8222 3393
8520 997  9333
8521 2055 6102
8522 9409 2622
8523 9319 2071
8524 3132 7909
8525 7599 404 
8526 2875 1401
8527 4090 7772
8528 7956 7755
8529 2837 6756
8530 9113 9953
8531 5110 5994
8532 4073 9326
8533 4911 6364
8534 5284 9849
8535 5352 4977
8536 2052 2050
8537 5314 2129
8538 1522 5089
8539 6165 1774
8540 3756 3759
8541 1614 7513
8542 2809 7553
8543 884  3089
8544 5806 1137
8545 5819 8967
8546 4630 6578
8547 423  5757
8548 9709 9514
8549 5110 3533
8550 3725 5796
8551 7506 3485
8552 6398 9651
8553 8338 2712
8554 3587 244 
8555 9155 1419
8556 358  8665
8557 5118 5905
8558 9448 5522
8559 127  89  
8560 6991 4132
8561 4885 5131
8562 717  3391
8563 9908 1710
8564 5110 5241
8565 1888 8815
8566 9198 7838
8567 5552 1663
8568 7299 4467
8569 2257 7417
8570 3549 3587
8571 3888 9806
8572 1236 5711
8573 6979 6254
8574 3451 5646
8575 5282 4210
8576 2960 3586
8577 6525 3265
8578 4508 1467
8579 393  9253
8580 7922 6420
8581 268  9589
8582 675  4918
8583 1443 1737
8584 987  305 
8585 664  9495
8586 1529 9237
8587 9695 2110
8588 5514 5248
8589 2142 5042
8590 9868 2972
8591 9832 7171
8592 159  9286
8593 5371 7224
8594 3270 767 
8595 8616 8586
8596 6374 3907
8597 7644 6587
8598 2854 6522
8599 3484 8934
8600 1461 2095
8601 8897 3364
8602 2117 5454
8603 4524 709 
8604 2425 1   
8605 7771 8418
8606 9745 3375
8607 8271 9463
8608 9012 5795
8609 5810 3086
8610 1394 6780
8611 503  5339
8612 2452 6298
8613 9346 6537
8614 3204 4517
8615 9355 6934
8616 2061 358 
8617 9049 3776
8618 5133 8360
8619 6831 9330
8620 7094 159 
8621 701  9243
8622 4255 4228
8623 5863 842 
8624 5983 3841
8625 2528 289 
8626 7727 2907
8627 645  356 
8628 8010 6178
8629 9411 7469
8630 2771 5456
8631 1033 7459
8632 7993 6081
8633 8143 9732
8634 2707 564 
8635 5294 9276
8636 3489 2198
8637 9166 8516
8638 4319 3180
8639 7700 8380
8640 4556 7294
8641 3205 8135
8642 3124 6780
8643 3343 5778
8644 2381 7272
8645 1477 3611
8646 1237 8308
8647 6024 7992
8648 5147 664 
8649 5964 5849
8650 632  7436
8651 1731 4314
8652 3404 5455
8653 5008 1449
8654 8312 9370
8655 3433 4647
8656 6797 6830
8657 2665 6186
8658 7116 3447
8659 6345 108 
8660 6537 2670
8661 7572 7106
8662 2880 6931
8663 9265 9186
8664 7596 1168
8665 2205 6073
8666 7542 2159
8667 7800 9974
8668 9453 9375
8669 2008 3986
8670 8306 2043
8671 3504 4077
8672 4192 3808
8673 2874 7901
8674 7659 3201
8675 7653 3734
8676 2640 6054
8677 8692 9656
8678 7879 993 
8679 4974 2610
8680 435  485 
8681 3090 9510
8682 6315 204 
8683 880  6727
8684 9655 7507
8685 8326 4100
8686 1485 3630
8687 7746 1269
8688 3228 6600
8689 4422 2851
8690 4237 5638
8691 8149 4036
8692 1247 6260
8693 7198 7620
8694 6496 9761
8695 2021 4990
8696 401  1408
8697 8052 8287
8698 9230 7032
8699 4870 5374
8700 9421 9757
8701 8968 637 
8702 9988 5270
8703 4865 9757
8704 7342 3976
8705 7028 5754
8706 6692 3433
8707 6323 2502
8708 3935 9060
8709 3574 4497
8710 9417 9704
8711 1598 1245
8712 5427 1059
8713 5793 7241
8714 8408 4161
8715 8188 536 
8716 7391 7499
8717 5748 5452
8718 6455 3711
8719 1512 8864
8720 7464 6951
8721 6544 2638
8722 4619 9199
8723 908  6376
8724 6194 3767
8725 4056 6513
8726 1246 3760
8727 2645 7915
8728 7089 8656
8729 6178 346 
8730 1302 2658
8731 742  1387
8732 4509 1827
8733 2373 8354
8734 3160 8159
8735 3016 31  
8736 6102 9459
8737 8068 7898
8738 139  3194
8739 3601 8471
8740 3902 4313
8741 1257 9049
8742 7101 1691
8743 1978 8906
8744 4241 4304
8745 4900 3828
8746 8009 5723
8747 8003 9430
8748 9073 7787
8749 6739 2980
8750 3655 1074
8751 8452 8697
8752 659  2711
8753 5032 955 
8754 7514 121 
8755 3334 101 
8756 1322 8392
8757 4832 5141
8758 7366 8478
8759 5603 9499
8760 379  2371
8761 178  3882
8762 1409 9589
8763 2286 8586
8764 9847 2390
8765 5811 4433
8766 9112 1146
8767 9566 9157
8768 4214 8006
8769 8285 5148
8770 5184 634 
8771 4534 3693
8772 4161 6359
8773 3841 531 
8774 5546 468 
8775 9189 1366
8776 5606 1708
8777 3057 718 
8778 1211 195 
8779 6239 5083
8780 8722 7910
8781 5271 6394
8782 1404 839 
8783 6802 578 
8784 8492 7340
8785 7998 6487
8786 4576 9286
8787 2133 1170
8788 5562 8114
8789 7817 7771
8790 5149 221 
8791 9692 9712
8792 7816 1878
8793 6827 6966
8794 6133 2021
8795 9716 2124
8796 153  4121
8797 1802 2164
8798 2103 9156
8799 241  8233
8800 8499 3802
8801 4772 5351
8802 5354 7844
8803 1332 5973
8804 2446 2107
8805 4019 4834
8806 6139 8041
8807 9746 8983
8808 3794 2486
8809 8183 8101
8810 3725 5368
8811 1713 6944
8812 8108 6087
8813 6155 4308
8814 6559 6135
8815 3089 6295
8816 7997 4185
8817 2050 9445
8818 5740 2666
8819 2112 2278
8820 8067 767 
8821 4694 9000
8822 1178 2407
8823 7301 9846
8824 98   5968
8825 5043 2716
8826 6271 7404
8827 4199 7923
8828 224  5130
8829 2532 2032
8830 16   4278
8831 1218 1517
8832 5313 3708
8833 9770 576 
8834 6630 2692
8835 975  6196
8836 1802 4688
8837 5325 5370
8838 180  107 
8839 5182 5270
8840 4558 1164
8841 1254 2029
8842 1778 2111
8843 7058 6175
8844 7286 7713
8845 2410 25  
8846 4694 4974
8847 8224 3692
8848 3110 2132
8849 4725 1887
8850 1634 2609
8851 5308 9887
8852 9110 7833
8853 1283 8598
8854 7918 5901
8855 7154 282 
8856 5220 985 
8857 5573 9404
8858 1536 1596
8859 1524 3312
8860 8376 5224
8861 2318 3065
8862 9190 2442
8863 3311 3072
8864 8558 2080
8865 689  524 
8866 3659 8382
8867 6149 199 
8868 5767 9880
8869 6464 7327
8870 7396 2418
8871 648  9386
8872 7894 5409
8873 974  7967
8874 200  8171
8875 158  1481
8876 6296 4538
8877 4562 945 
8878 1322 2456
8879 3696 9536
8880 3237 2043
8881 7823 8516
8882 8279 1499
8883 6587 3394
8884 8986 6983
8885 5130 5122
8886 5552 6128
8887 6869 5248
8888 6196 5845
8889 605  1450
8890 1245 6561
8891 630  3079
8892 38   4496
8893 1488 6353
8894 1862 4883
8895 187  3438
8896 1535 8374
8897 7120 3680
8898 1260 2801
8899 1792 5961
8900 6757 4929
8901 5765 9064
8902 1366 1849
8903 2876 6481
8904 7685 8112
8905 1998 30  
8906 6112 5236
8907 5397 3164
8908 9554 8814
8909 3598 3372
8910 6023 1872
8911 4946 7454
8912 5033 5113
8913 9756 1638
8914 6129 3951
8915 5344 6292
8916 3829 8694
8917 5923 9320
8918 7515 1168
8919 1669 9474
8920 164  6526
8921 6615 9596
8922 3153 2976
8923 3195 5657
8924 7490 4537
8925 4405 8877
8926 5485 7307
8927 814  3327
8928 9247 1925
8929 3303 2375
8930 6170 6441
8931 8111 8138
8932 5637 6899
8933 6873 5947
8934 7281 6806
8935 6382 5246
8936 4787 7632
8937 2114 4981
8938 8612 8304
8939 6821 6429
8940 5761 3118
8941 1711 1618
8942 7251 6332
8943 6247 6112
8944 9734 3837
8945 3867 2286
8946 5972 8610
8947 1774 5759
8948 4887 7984
8949 4897 8727
8950 824  3824
8951 1642 5080
8952 5298 1456
8953 9248 4025
8954 3007 3854
8955 8718 4402
8956 6298 7926
8957 2578 9191
8958 3366 8418
8959 4868 89  
8960 5993 996 
8961 5039 6980
8962 2463 7388
8963 8898 1353
8964 8431 7299
8965 9510 4632
8966 9377 1693
8967 1742 6236
8968 4401 774 
8969 2922 71  
8970 4000 4654
8971 8303 7210
8972 5131 9559
8973 6929 9923
8974 3276 8744
8975 698  6703
8976 9346 9427
8977 9082 5399
8978 7423 5907
8979 2004 1377
8980 92   3190
8981 1391 1117
8982 9692 2770
8983 6652 4900
8984 1514 3536
8985 6461 9017
8986 4780 7330
8987 1195 4036
8988 6774 8315
8989 8933 6188
8990 9254 63  
8991 2656 1554
8992 6104 8378
8993 5158 9659
8994 5417 5940
8995 1553 5301
8996 9172 3975
8997 6920 4051
8998 1973 3999
8999 1711 9234
9000 9721 9763
9001 4107 5488
9002 3868 2098
9003 8343 5503
9004 7451 5266
9005 9949 7062
9006 2004 7561
9007 3479 7864
9008 7450 2105
9009 4232 6582
9010 8943 6371
9011 5399 4436
9012 3038 6955
9013 1102 1836
9014 6172 4272
9015 339  1329
9016 2668 2483
9017 4206 4367
9018 8577 9085
9019 2212 3584
9020 128  1561
9021 5065 3858
9022 3357 1177
9023 745  1409
9024 5913 4901
9025 6991 4352
9026 1253 8182
9027 4820 1783
9028 1643 1086
9029 2368 6222
9030 6763 1091
9031 3561 2429
9032 3482 9061
9033 2981 7727
9034 2332 2433
9035 6457 5371
9036 1094 8346
9037 4667 2813
9038 7164 6821
9039 4626 3234
9040 6236 1692
9041 2208 2726
9042 909  252 
9043 2392 5591
9044 5895 1237
9045 2404 5044
9046 4113 2948
9047 7445 3481
9048 1704 7278
9049 9573 2776
9050 567  4847
9051 1260 9693
9052 5292 9834
9053 9395 5372
9054 6797 3588
9055 1995 1116
9056 5209 5708
9057 497  5845
9058 3994 7857
9059 7384 1898
9060 5161 6298
9061 1392 9471
9062 47   5977
9063 3371 9544
9064 6250 204 
9065 8724 4499
9066 2841 3263
9067 6687 113 
9068 2294 6559
9069 7471 6549
9070 6843 8883
9071 5162 5339
9072 792  3094
9073 6013 6639
9074 7976 4484
9075 2311 5263
9076 1852 8400
9077 4545 9808
9078 5748 8928
9079 2746 5157
9080 177  3904
9081 8135 3366
9082 2702 2855
9083 4900 5201
9084 6217 4249
9085 7545 6014
9086 7076 3430
9087 9151 5810
9088 2950 5279
9089 4667 8812
9090 2706 3920
9091 1898 8246
9092 3112 8815
9093 8906 3593
9094 5455 219 
9095 3356 669 
9096 4721 8856
9097 2861 4370
9098 8769 5869
9099 3553 1070
9100 6315 1176
9101 8128 5890
9102 7935 9921
9103 6137 4267
9104 288  5141
9105 7220 768 
9106 3480 7810
9107 851  7658
9108 4475 9826
9109 5511 4422
9110 8535 97  
9111 4088 7265
9112 1929 1669
9113 1952 8343
9114 4025 6289
9115 4501 8860
9116 5942 8303
9117 9892 9603
9118 8779 2709
9119 3458 8687
9120 9517 5535
9121 6991 4826
9122 4473 413 
9123 5337 2736
9124 2730 4497
9125 6325 1728
9126 8924 3133
9127 2443 72  
9128 2453 4855
9129 386  4404
9130 878  8379
9131 988  3456
9132 2049 5245
9133 2034 4719
9134 1359 9266
9135 5834 8602
9136 2551 4961
9137 1155 7882
9138 4908 5222
9139 5660 244 
9140 3544 4940
9141 3992 3777
9142 8287 2527
9143 4463 8990
9144 1601 9957
9145 586  5691
9146 1016 204 
9147 1078 1500
9148 7237 3453
9149 5342 6136
9150 2827 9003
9151 2033 6109
9152 2441 9171
9153 104  9455
9154 3484 4837
9155 6329 5022
9156 6534 5888
9157 3147 3285
9158 3705 7715
9159 8386 6192
9160 8875 4581
9161 9299 5430
9162 4264 3473
9163 8524 4508
9164 9406 1030
9165 3017 5338
9166 7984 9584
9167 7613 9426
9168 8813 890 
9169 2992 591 
9170 3766 1387
9171 1116 1740
9172 6593 1205
9173 7014 6695
9174 1687 9749
9175 2528 6858
9176 8916 6468
9177 6377 2483
9178 847  9786
9179 530  5290
9180 5307 4472
9181 6361 1459
9182 7393 1928
9183 1545 371 
9184 3674 911 
9185 3135 2948
9186 441  5836
9187 1920 1640
9188 5888 7265
9189 693  9241
9190 4501 5371
9191 2377 1451
9192 3124 3813
9193 222  8644
9194 1112 8768
9195 1006 8926
9196 9137 4843
9197 428  5495
9198 6149 5751
9199 7154 3550
9200 1301 4079
9201 2055 3545
9202 2054 2520
9203 6026 535 
9204 5669 6049
9205 84   559 
9206 7648 3483
9207 126  3433
9208 1839 7233
9209 7126 722 
9210 8464 3699
9211 501  999 
9212 1594 6925
9213 9188 5981
9214 580  4774
9215 1668 4207
9216 6280 5738
9217 1232 5084
9218 6830 8442
9219 9554 2698
9220 378  2392
9221 7988 5054
9222 6801 8356
9223 6266 9750
9224 9253 530 
9225 604  520 
9226 4940 5714
9227 2328 675 
9228 3085 5300
9229 2876 324 
9230 1950 244 
9231 1141 6665
9232 1601 9031
9233 2353 5389
9234 3187 6526
9235 8261 2723
9236 6561 5314
9237 8304 9385
9238 9106 1518
9239 8963 3083
9240 912  2240
9241 9144 4664
9242 3415 5964
9243 1195 7823
9244 6998 5204
9245 5769 7168
9246 5587 2086
9247 7590 4171
9248 443  3648
9249 2687 6482
9250 3290 9152
9251 555  6903
9252 7021 6524
9253 6035 8867
9254 8560 8911
9255 5650 3265
9256 4945 7232
9257 5197 1722
9258 4633 7174
9259 7210 5455
9260 1661 7954
9261 313  3879
9262 7338 7226
9263 4617 8243
9264 8225 7829
9265 9906 1721
9266 1681 7104
9267 6359 6594
9268 508  245 
9269 7834 8555
9270 1526 6250
9271 3935 5150
9272 4163 3985
9273 6093 8608
9274 9711 985 
9275 5246 1655
9276 1237 9224
9277 5206 5390
9278 9060 8076
9279 9990 2317
9280 4059 4552
9281 7827 1610
9282 5980 5675
9283 4459 7173
9284 919  5896
9285 5038 678 
9286 3759 6987
9287 86   5446
9288 2764 2589
9289 8596 4025
9290 848  996 
9291 2772 9557
9292 1796 2129
9293 4413 5589
9294 8762 5532
9295 255  9112
9296 7260 6784
9297 2663 9949
9298 4877 2538
9299 1834 107 
9300 5852 9802
9301 5292 9701
9302 7061 6847
9303 1952 5577
9304 9761 2272
9305 5475 4868
9306 6819 1604
9307 8836 225 
9308 9389 3467
9309 9154 9609
9310 5845 6943
9311 1651 5923
9312 635  1945
9313 4607 2523
9314 5597 1592
9315 7319 7815
9316 1739 358 
9317 8741 6987
9318 3984 8868
9319 7688 1670
9320 5087 4639
9321 2517 7054
9322 6982 9185
9323 843  1955
9324 2073 8908
9325 8913 1208
9326 2592 4028
9327 6631 8948
9328 1701 6660
9329 8441 7755
9330 216  2492
9331 5834 7385
9332 4867 5429
9333 4628 7091
9334 8443 4542
9335 5886 8620
9336 2954 6508
9337 3111 8242
9338 6132 6400
9339 1965 7398
9340 6745 9978
9341 8158 9790
9342 6650 1287
9343 824  4885
9344 3020 4246
9345 4033 140 
9346 2133 9757
9347 5935 2916
9348 766  1348
9349 7153 4218
9350 5173 5434
9351 8479 1107
9352 1854 296 
9353 8766 9328
9354 4598 7231
9355 9988 9739
9356 4407 5118
9357 4986 1860
9358 4255 2019
9359 2114 7579
9360 8709 5341
9361 1852 7435
9362 6290 2114
9363 6633 8642
9364 6229 6902
9365 2972 567 
9366 7531 6140
9367 7767 873 
9368 9030 663 
9369 2930 9980
9370 907  6832
9371 1475 6038
9372 2281 3055
9373 3954 5572
9374 835  6290
9375 9059 242 
9376 1259 7834
9377 3149 5835
9378 82   66  
9379 4468 5122
9380 253  2399
9381 6563 4350
9382 8373 8740
9383 9598 6628
9384 1636 3009
9385 6182 5619
9386 6556 512 
9387 2847 2531
9388 6352 5102
9389 8938 8118
9390 5869 9850
9391 4038 3647
9392 536  3716
9393 3802 2879
9394 6171 5863
9395 5836 6111
9396 6901 159 
9397 7349 4063
9398 3842 9143
9399 2732 3621
9400 4152 5172
9401 8666 3023
9402 4284 7944
9403 2573 2353
9404 8836 3308
9405 2280 818 
9406 3234 1337
9407 6156 4874
9408 844  244 
9409 744  2388
9410 8234 2132
9411 698  1553
9412 3574 3036
9413 4157 3781
9414 8214 6325
9415 7963 7543
9416 564  122 
9417 2945 8483
9418 1585 992 
9419 3012 6737
9420 892  5571
9421 5912 7886
9422 3756 991 
9423 6656 9214
9424 4367 8568
9425 4398 7603
9426 7081 4323
9427 9078 9705
9428 3974 3660
9429 1163 4409
9430 9487 5388
9431 4304 8508
9432 7651 2195
9433 149  8299
9434 9822 4739
9435 8470 346 
9436 6920 5468
9437 5609 3084
9438 6099 9640
9439 6693 4458
9440 5181 6720
9441 5535 2417
9442 5781 6794
9443 8293 9824
9444 7799 4859
9445 6264 8020
9446 9032 5709
9447 2591 6212
9448 2963 260 
9449 8371 8219
9450 9230 3597
9451 8646 8064
9452 5476 7258
9453 634  2745
9454 4835 616 
9455 1851 6923
9456 959  9089
9457 3846 6086
9458 802  3638
9459 1925 2394
9460 7844 438 
9461 3692 6269
9462 5148 4805
9463 1920 7611
9464 917  7420
9465 4900 537 
9466 7067 5803
9467 6694 6381
9468 7124 2895
9469 4310 5214
9470 3820 8147
9471 3221 6143
9472 6613 9040
9473 4541 2062
9474 3857 7364
9475 3466 9444
9476 7774 6179
9477 5636 4082
9478 5973 2307
9479 2206 2730
9480 7644 5010
9481 8284 4447
9482 8289 1459
9483 7082 283 
9484 3808 240 
9485 3373 5480
9486 1016 3168
9487 6692 1118
9488 6821 702 
9489 4563 7259
9490 1871 9068
9491 7103 6205
9492 6891 1259
9493 7961 415 
9494 5017 4690
9495 8523 9023
9496 3305 2169
9497 5307 6999
9498 4886 9108
9499 3875 2922
9500 664  6571
9501 5745 1179
9502 8095 2686
9503 3953 9746
9504 4676 2265
9505 3965 2200
9506 4919 8058
9507 3795 3489
9508 7937 6678
9509 1750 8790
9510 5988 687 
9511 4809 998 
9512 7499 6987
9513 5395 3888
9514 7522 3624
9515 3516 5404
9516 186  963 
9517 6124 4197
9518 7728 6486
9519 6686 1331
9520 5669 4127
9521 9756 1827
9522 1568 630 
9523 1483 2889
9524 2143 7468
9525 2035 6284
9526 6009 4833
9527 6790 2766
9528 6038 2541
9529 7799 7074
9530 6102 9641
9531 1998 8751
9532 9825 6439
9533 607  8958
9534 2204 1606
9535 301  6763
9536 7615 427 
9537 2171 9402
9538 1810 9571
9539 8977 8327
9540 1084 381 
9541 7677 894 
9542 4764 9040
9543 9140 8116
9544 5195 2697
9545 3189 4547
9546 6094 763 
9547 835  1289
9548 2554 8235
9549 3541 5991
9550 8343 3672
9551 2667 2758
9552 4586 1640
9553 5376 9749
9554 4708 2739
9555 3457 9005
9556 4114 3483
9557 4586 3535
9558 128  2800
9559 611  7780
9560 5839 9570
9561 7513 4900
9562 3120 5282
9563 677  2989
9564 3310 1702
9565 7189 7454
9566 6129 3415
9567 9645 9386
9568 4340 3472
9569 3996 5558
9570 9668 9178
9571 4768 4431
9572 4533 6088
9573 8845 4923
9574 6820 9037
9575 4170 6382
9576 4421 9050
9577 2391 972 
9578 3623 5512
9579 3817 5902
9580 4715 692 
9581 5037 2974
9582 2055 1974
9583 6306 5883
9584 7251 5439
9585 3429 1254
9586 6177 9530
9587 2813 1281
9588 2357 543 
9589 2915 9680
9590 4448 7592
9591 1806 7420
9592 9735 6823
9593 275  8270
9594 6076 546 
9595 4571 7050
9596 4072 5660
9597 1893 8387
9598 8445 4189
9599 3227 1516
9600 2095 2566
9601 1751 6566
9602 8022 8545
9603 4969 4262
9604 8077 661 
9605 8755 7485
9606 1302 6244
9607 9697 905 
9608 3502 596 
9609 7459 3480
9610 1918 2880
9611 5460 259 
9612 7022 9197
9613 1257 1756
9614 4345 5755
9615 3512 3307
9616 1180 8261
9617 4367 6587
9618 4080 1286
9619 6984 3779
9620 2233 9336
9621 4698 8261
9622 9636 5974
9623 6967 6988
9624 8335 5870
9625 2211 1102
9626 8763 439 
9627 2026 2206
9628 3251 3708
9629 3677 1438
9630 9518 7480
9631 1315 107 
9632 3552 6757
9633 5617 560 
9634 5538 136 
9635 319  7269
9636 9539 9003
9637 3707 3597
9638 8471 628 
9639 3987 6831
9640 9513 9144
9641 703  2272
9642 5810 6048
9643 320  8512
9644 9018 4628
9645 396  9435
9646 2588 8080
9647 4370 4047
9648 8215 3912
9649 7606 533 
9650 1901 6466
9651 2706 8261
9652 9743 4458
9653 5186 5199
9654 991  9684
9655 4866 3229
9656 3239 4257
9657 4364 314 
9658 343  9870
9659 4573 6840
9660 5516 1386
9661 6282 6019
9662 1701 8029
9663 4295 4347
9664 8377 2093
9665 6497 1939
9666 9576 7976
9667 4147 4941
9668 8709 35  
9669 8978 5389
9670 5273 8292
9671 9443 4448
9672 7275 9276
9673 9934 4559
9674 5763 195 
9675 3591 7649
9676 5546 1337
9677 8471 5242
9678 4002 1723
9679 7197 225 
9680 9578 1102
9681 7372 9916
9682 7771 1633
9683 4922 9915
9684 121  2424
9685 7240 9312
9686 7335 9223
9687 3839 9142
9688 1039 807 
9689 7862 543 
9690 4261 5315
9691 2472 441 
9692 2808 8808
9693 9744 7848
9694 6022 3939
9695 3214 2394
9696 5265 4273
9697 6525 4390
9698 9645 8825
9699 7024 8670
9700 8975 4544
9701 5333 2558
9702 5568 3910
9703 9714 8169
9704 3645 5283
9705 5149 7663
9706 993  1428
9707 6208 5884
9708 1589 5813
9709 7516 1411
9710 5466 7399
9711 765  4241
9712 1605 575 
9713 2216 5153
9714 4752 2059
9715 7030 5657
9716 7194 8535
9717 686  9080
9718 1355 9751
9719 6576 911 
9720 6467 3034
9721 9588 2353
9722 5906 7884
9723 2348 5339
9724 9689 5298
9725 8415 3918
9726 1056 8107
9727 8908 8189
9728 3160 3764
9729 6805 2953
9730 427  6337
9731 6620 7712
9732 8290 5230
9733 502  3722
9734 6068 7278
9735 4796 4356
9736 5736 8023
9737 4211 37  
9738 1256 2600
9739 2811 4820
9740 5012 5827
9741 2953 200 
9742 4612 6193
9743 1895 9447
9744 7615 7354
9745 700  4994
9746 7919 1469
9747 1634 6328
9748 9800 3814
9749 4617 7174
9750 1397 498 
9751 3191 4953
9752 8357 5727
9753 6718 4962
9754 2391 5757
9755 1932 3654
9756 6607 5181
9757 3855 1789
9758 3258 1082
9759 2420 6805
9760 2066 3544
9761 3207 8786
9762 9367 7778
9763 4795 4209
9764 8573 1890
9765 2783 3294
9766 846  8307
9767 4341 8656
9768 7150 1181
9769 3875 4556
9770 7862 2006
9771 8437 4417
9772 8492 6790
9773 7546 9124
9774 474  7629
9775 4748 457 
9776 4418 688 
9777 3951 7799
9778 1156 1970
9779 9809 9536
9780 6676 8476
9781 8390 5303
9782 6417 6637
9783 6807 7787
9784 8022 8538
9785 2010 822 
9786 1498 3650
9787 7849 7229
9788 4504 6839
9789 8824 5960
9790 1574 7274
9791 7148 4900
9792 4684 4887
9793 575  3614
9794 8864 9403
9795 3785 2729
9796 8445 5889
9797 2941 7330
9798 8993 5798
9799 3928 6731
9800 4576 642 
9801 1479 9986
9802 1034 3108
9803 3144 7541
9804 5676 4933
9805 3701 6406
9806 713  9083
9807 4318 7477
9808 2551 2222
9809 2985 8785
9810 4320 6857
9811 5671 3415
9812 3916 53  
9813 3204 9642
9814 9208 3793
9815 4465 6493
9816 2983 4158
9817 6076 6267
9818 2497 6492
9819 8729 1814
9820 4544 5006
9821 1633 8400
9822 1015 2614
9823 1654 1135
9824 4618 7125
9825 7881 4977
9826 5591 2074
9827 5690 2449
9828 9349 5057
9829 6701 3648
9830 842  7679
9831 1086 1882
9832 6887 4673
9833 9727 6434
9834 110  1774
9835 3334 5484
9836 3673 2280
9837 4656 5710
9838 6742 1442
9839 380  1956
9840 6478 4793
9841 5226 2638
9842 7787 4626
9843 1218 391 
9844 4997 3115
9845 3151 227 
9846 5847 8845
9847 2072 8074
9848 2212 1483
9849 5335 8665
9850 3751 4500
9851 5497 5170
9852 8958 2612
9853 8649 6218
9854 4765 8556
9855 4277 4682
9856 8982 3004
9857 6310 1710
9858 8142 7356
9859 2996 5026
9860 579  1055
9861 9786 613 
9862 776  3377
9863 8409 6307
9864 5656 8469
9865 6697 729 
9866 4049 5231
9867 9958 2643
9868 8911 7629
9869 6063 6293
9870 2744 5573
9871 8197 1043
9872 4564 6374
9873 9084 8634
9874 3803 2710
9875 8895 8808
9876 7781 9595
9877 8840 4623
9878 6227 9992
9879 3455 9466
9880 8761 5475
9881 2179 3790
9882 7542 2210
9883 7834 7982
9884 6687 8658
9885 548  712 
9886 6471 3052
9887 5176 6172
9888 9676 2771
9889 8780 6635
9890 4602 5776
9891 5542 2254
9892 9321 9722
9893 8002 6994
9894 4155 9689
9895 7960 2871
9896 2637 650 
9897 4789 8981
9898 3221 7861
9899 8564 7669
9900 8853 5436
9901 6612 6667
9902 8408 7308
9903 2150 2742
9904 7044 1504
9905 6333 5427
9906 9470 4451
9907 803  6922
9908 7071 2277
9909 5869 6749
9910 1419 9200
9911 2992 7051
9912 4414 6670
9913 3644 8334
9914 865  1812
9915 9969 6031
9916 4802 1191
9917 5087 6774
9918 2304 2903
9919 7097 9170
9920 5396 1791
9921 2652 7895
9922 6236 1097
9923 4521 4758
9924 9447 7495
9925 3293 4238
9926 2649 2472
9927 1477 7351
9928 4883 1897
9929 1825 6092
9930 455  8058
9931 2857 5335
9932 547  6047
9933 6960 2523
9934 3169 9129
9935 9792 771 
9936 9682 2155
9937 8374 288 
9938 1205 1659
9939 2484 4085
9940 581  2942
9941 7868 2955
9942 7446 1617
9943 2909 8843
9944 2485 1406
9945 6780 1237
9946 9321 4400
9947 5112 7619
9948 8148 5139
9949 9264 1677
9950 1037 7829
9951 5288 6489
9952 6899 8357
9953 6590 1637
9954 139  5650
9955 2089 627 
9956 2133 9683
9957 5381 4685
9958 4071 9604
9959 9943 334 
9960 1908 3368
9961 6690 8900
9962 309  1780
9963 3032 5992
9964 6819 7912
9965 9013 8777
9966 9184 1040
9967 3782 8503
9968 5016 7469
9969 3740 7969
9970 6043 6818
9971 4710 9939
9972 6112 2906
9973 8868 4782
9974 7876 475 
9975 6518 1927
9976 5094 9819
9977 4003 2535
9978 3460 8095
9979 118  8436
9980 7421 339 
9981 4509 4467
9982 9251 969 
9983 8953 273 
9984 5028 680 
9985 6326 4399
9986 4592 1250
9987 4560 8545
9988 9086 7435
9989 3977 5246
9990 5733 8545
9991 8793 8374
9992 6645 8856
9993 554  3498
9994 4346 6499
9995 8157 7543
9996 2761 2910
9997 3370 6836
9998 429  2482
9999 5248 8900
10000 4459 9366
10001 8579 8009
10002 3449 4283
10003 3883 2191
10004 4119 7341
10005 5703 1350
10006 8142 6738
10007 5334 303 
10008 6006 4462
10009 602  7583
10010 2041 2420
10011 4744 2545
10012 6725 2829
10013 9125 6776
10014 7523 3324
10015 3435 3931
10016 9137 2982
10017 8026 5697
10018 3395 9056
10019 3724 9003
10020 5824 4670
10021 6894 9353
10022 2443 5548
10023 5641 1913
10024 7106 594 
10025 1487 5832
10026 574  6783
10027 946  223 
10028 4189 2447
10029 4686 7729
10030 687  20  
10031 7729 8010
10032 1344 8880
10033 3379 3180
10034 5397 9323
10035 6186 2786
10036 55   6227
10037 6749 1149
10038 3426 7753
10039 1111 6001
10040 2501 4230
10041 6926 1758
10042 7016 136 
10043 4014 8149
10044 141  8248
10045 1123 1953
10046 7201 5115
10047 2326 6492
10048 4987 8406
10049 1549 22  
10050 2478 6972
10051 8522 9266
10052 2548 8387
10053 7872 4332
10054 3264 7466
10055 2074 8832
10056 4807 440 
10057 1831 2244
10058 6625 230 
10059 2681 4526
10060 5983 2334
10061 735  1621
10062 954  652 
10063 3077 5801
10064 8898 4660
10065 351  7362
10066 1115 7412
10067 2609 2023
10068 2019 5111
10069 6354 3685
10070 4378 2609
10071 8925 2915
10072 3699 8756
10073 924  2821
10074 5528 3763
10075 1839 2997
10076 6952 1493
10077 3866 5334
10078 6308 6352
10079 2122 3512
10080 3517 1175
10081 5139 5068
10082 3606 131 
10083 5756 2751
10084 3032 9608
10085 7109 5482
10086 1858 7932
10087 6584 7010
10088 3137 7969
10089 1703 7860
10090 8653 6169
10091 6617 4678
10092 5680 4034
10093 7872 8485
10094 6398 6276
10095 8339 9107
10096 4601 8639
10097 9116 278 
10098 8833 2628
10099 5637 4718
10100 300  3409
10101 9414 5435
10102 7607 4356
10103 2808 9628
10104 4689 7552
10105 5809 5486
10106 7335 258 
10107 2087 2505
10108 2293 2077
10109 3964 8725
10110 914  7760
10111 6431 5312
10112 6643 5277
10113 1635 3656
10114 2882 4694
10115 7180 3697
10116 9810 8879
10117 2886 4682
10118 2535 5897
10119 6284 2996
10120 1916 7472
10121 5721 2130
10122 9362 9679
10123 2438 7457
10124 4016 8636
10125 715  8855
10126 3615 4446
10127 1910 4554
10128 2731 7786
10129 4772 9938
10130 1791 6997
10131 1923 6107
10132 8049 9289
10133 435  6963
10134 6547 3837
10135 5091 6804
10136 9646 9656
10137 7082 2529
10138 8763 3390
10139 4117 8749
10140 9974 7907
10141 1130 4479
10142 8924 5355
10143 2382 3365
10144 338  8558
10145 4852 9149
10146 8699 9808
10147 6206 6250
10148 4151 9703
10149 5069 2325
10150 4711 7968
10151 4252 445 
10152 9758 8649
10153 894  5751
10154 9325 1403
10155 6798 372 
10156 577  3616
10157 8511 7628
10158 3701 9605
10159 3446 4669
10160 7879 9578
10161 1050 9397
10162 9465 8115
10163 3616 6452
10164 2403 6206
10165 862  8196
10166 1466 9908
10167 5473 6927
10168 7315 3512
10169 4052 4873
10170 1594 817 
10171 5811 704 
10172 7078 2025
10173 2739 9097
10174 4810 203 
10175 1746 7291
10176 8324 9955
10177 1810 136 
10178 7133 5889
10179 2666 2967
10180 2300 7258
10181 3251 9428
10182 1246 32  
10183 170  3719
10184 5172 9109
10185 2603 9710
10186 6782 1287
10187 8108 9160
10188 4251 1488
10189 7649 869 
10190 9920 4319
10191 5341 8637
10192 9756 3485
10193 8549 583 
10194 4578 7744
10195 2978 4131
10196 809  4876
10197 4697 575 
10198 6121 4853
10199 4131 6322
10200 4215 8047
10201 3030 3942
10202 5056 7294
10203 7739 2452
10204 1445 7308
10205 2100 4254
10206 5892 1228
10207 4130 6489
10208 30   7980
10209 1441 5205
10210 6466 4105
10211 9397 9339
10212 4642 1376
10213 8966 3929
10214 2015 5304
10215 6715 6943
10216 7440 2445
10217 5608 9316
10218 3717 5994
10219 4868 7314
10220 5480 8648
10221 9213 6147
10222 3868 3160
10223 9976 774 
10224 8801 5907
10225 255  8052
10226 6628 6526
10227 377  9489
10228 2504 3756
10229 3738 4671
10230 1969 1081
10231 2699 2634
10232 9149 211 
10233 1675 2655
10234 9628 7639
10235 7110 4191
10236 929  3921
10237 5915 2285
10238 3888 182 
10239 5426 9641
10240 5462 4415
10241 9635 3333
10242 5922 678 
10243 6560 6682
10244 271  9058
10245 2811 2296
10246 2607 9770
10247 7181 9303
10248 2859 5259
10249 1886 9123
10250 1824 3975
10251 1805 8497
10252 4988 6971
10253 3372 9532
10254 4317 6128
10255 3141 8713
10256 1778 4470
10257 4604 1764
10258 4985 4479
10259 4665 7333
10260 4694 4433
10261 6421 2882
10262 9394 5284
10263 3919 5675
10264 9715 2883
10265 9693 3716
10266 5792 8801
10267 1177 7805
10268 7027 593 
10269 1227 3383
10270 4600 9388
10271 34   6168
10272 3321 1672
10273 7284 9550
10274 7060 6764
10275 3126 6525
10276 7541 5350
10277 3652 785 
10278 6314 5369
10279 583  7326
10280 8404 8092
10281 4436 9523
10282 4814 3325
10283 1134 2315
10284 4225 4729
10285 1916 9904
10286 3977 3459
10287 3171 1682
10288 7325 3287
10289 3583 4792
10290 282  5290
10291 3771 5583
10292 5130 8166
10293 7832 875 
10294 8613 72  
10295 8159 3114
10296 5021 4221
10297 8123 5109
10298 7990 6480
10299 6917 5139
10300 6273 1061
10301 4372 2259
10302 6506 7779
10303 6506 4294
10304 6882 3082
10305 3503 9309
10306 1562 9166
10307 2197 1851
10308 3247 4316
10309 9485 5172
10310 6869 4690
10311 5183 9670
10312 4811 2821
10313 908  2458
10314 5424 6343
10315 292  3370
10316 4097 6744
10317 268  4340
10318 7347 5244
10319 6139 537 
10320 2651 3987
10321 1361 2476
10322 5456 403 
10323 1795 3473
10324 2309 4578
10325 1781 9965
10326 358  942 
10327 4913 2592
10328 5387 3260
10329 2306 5044
10330 7961 7163
10331 642  4401
10332 1556 1933
10333 6534 4927
10334 1654 5712
10335 1444 4411
10336 7166 2934
10337 4207 8765
10338 5682 3154
10339 2598 6522
10340 7760 3686
10341 4352 1365
10342 3303 5280
10343 2137 3250
10344 4546 5963
10345 151  2531
10346 3422 6783
10347 2045 8105
10348 3946 155 
10349 4905 4817
10350 7922 2984
10351 1226 3903
10352 8652 5442
10353 7309 780 
10354 313  3410
10355 5431 8982
10356 1482 3896
10357 7350 8011
10358 9361 5006
10359 8955 7523
10360 7728 7   
10361 9087 5130
10362 8544 2445
10363 4571 7216
10364 6582 1444
10365 2889 6352
10366 6924 5092
10367 3100 7737
10368 5535 2429
10369 6602 177 
10370 3479 4778
10371 9877 797 
10372 8015 1222
10373 4907 7604
10374 526  4591
10375 8270 8206
10376 2906 7280
10377 630  6314
10378 5920 8727
10379 7682 9936
10380 3604 2435
10381 2647 1916
10382 8489 3364
10383 6843 2440
10384 4998 5679
10385 4901 3376
10386 7382 6899
10387 1779 9450
10388 4874 5226
10389 2689 8538
10390 3406 8953
10391 4557 8357
10392 7687 9561
10393 1298 7222
10394 7267 3372
10395 9171 7943
10396 4847 8003
10397 4851 3941
10398 3659 5498
10399 8206 9018
10400 1279 3197
10401 8240 2053
10402 6627 7126
10403 1718 5873
10404 5439 4266
10405 5168 3562
10406 285  3165
10407 150  6829
10408 4662 8871
10409 5874 7615
10410 3731 4417
10411 7241 761 
10412 5415 4599
10413 4490 6025
10414 9350 132 
10415 7683 6274
10416 9447 9717
10417 4161 1926
10418 6128 9205
10419 8516 4418
10420 1754 461 
10421 8630 9368
10422 5233 3975
10423 1107 5774
10424 9569 4164
10425 8649 5053
10426 2799 989 
10427 6833 7693
10428 1337 4380
10429 3639 7664
10430 2190 8511
10431 6147 4961
10432 1158 4267
10433 9972 9985
10434 9039 5695
10435 3840 3654
10436 3410 5811
10437 133  640 
10438 6604 1085
10439 172  8541
10440 888  4884
10441 4195 8303
10442 5608 6701
10443 6847 8561
10444 4785 7331
10445 1810 1184
10446 396  7148
10447 1315 6814
10448 2864 6907
10449 6901 2832
10450 2588 1767
10451 5466 8825
10452 5780 7541
10453 9536 8972
10454 9156 5401
10455 2528 5027
10456 4064 3319
10457 2721 3032
10458 9970 9904
10459 6774 4199
10460 654  1919
10461 2556 9832
10462 1576 3144
10463 6654 763 
10464 437  1303
10465 6817 7121
10466 1522 2855
10467 8565 6537
10468 4418 9613
10469 7871 2058
10470 7314 5526
10471 1366 4563
10472 7335 933 
10473 1748 4622
10474 4505 7626
10475 4921 4061
10476 9349 9861
10477 6880 9971
10478 3403 3447
10479 6908 9327
10480 5813 672 
10481 8709 3661
10482 9267 8632
10483 3993 8974
10484 7137 1961
10485 9772 2032
10486 8942 1155
10487 3494 2668
10488 7386 272 
10489 9190 5306
10490 8520 8965
10491 1554 9069
10492 6623 1863
10493 8224 9075
10494 7056 188 
10495 2878 828 
10496 1998 246 
10497 4983 9669
10498 4748 1281
10499 5004 3227
10500 8212 6279
10501 7235 6599
10502 3559 1725
10503 8342 8053
10504 9175 8851
10505 4011 8295
10506 5127 2112
10507 6538 8036
10508 630  2358
10509 3958 2308
10510 2832 2805
10511 7621 64  
10512 7867 1916
10513 4030 4877
10514 7810 2236
10515 9123 7745
10516 7355 493 
10517 5077 5264
10518 6948 5016
10519 388  8403
10520 6233 2943
10521 5695 260 
10522 5893 7921
10523 2773 9371
10524 7127 5686
10525 9112 7952
10526 3085 7301
10527 5246 6536
10528 6271 5868
10529 7582 1547
10530 6821 3323
10531 1649 6861
10532 8611 6116
10533 2165 4621
10534 7166 5543
10535 7241 3020
10536 8539 7421
10537 918  2071
10538 7095 8374
10539 8974 2957
10540 304  9212
10541 2134 5948
10542 5493 8948
10543 3607 4406
10544 2822 7793
10545 4867 8256
10546 154  2557
10547 3046 5834
10548 8075 2114
10549 2898 8046
10550 2431 9082
10551 192  6672
10552 581  9526
10553 715  5433
10554 7770 3609
10555 2129 9893
10556 796  4351
10557 9624 6681
10558 2290 7997
10559 9245 4035
10560 1216 1748
10561 536  4621
10562 1420 2110
10563 1150 2309
10564 1300 7780
10565 7663 6718
10566 6264 7417
10567 2922 9134
10568 2660 4707
10569 7068 4222
10570 1967 6371
10571 8787 5998
10572 223  5676
10573 5834 9109
10574 9329 7734
10575 2573 2749
10576 4191 7650
10577 5335 2113
10578 8029 5614
10579 4754 7979
10580 8479 1308
10581 6825 5677
10582 5248 1946
10583 4784 895 
10584 7560 2828
10585 274  3854
10586 1892 3406
10587 3982 4955
10588 2710 8840
10589 3150 9813
10590 3838 6501
10591 6187 6704
10592 7713 7874
10593 7661 4289
10594 7019 7368
10595 762  939 
10596 1892 6591
10597 7082 3158
10598 7058 5995
10599 6179 9947
10600 1293 5611
10601 4236 79  
10602 9885 3751
10603 1932 6413
10604 8577 7952
10605 4176 1160
10606 104  1211
10607 1250 6490
10608 8080 1346
10609 4089 9946
10610 7830 8221
10611 9689 7176
10612 6311 7191
10613 1054 6572
10614 6624 10000
10615 3898 1796
10616 8805 4598
10617 370  2219
10618 2318 4872
10619 1790 2445
10620 2938 7802
10621 2310 6015
10622 3619 9278
10623 174  4955
10624 3479 4634
10625 7400 7207
10626 323  2416
10627 5143 9659
10628 4782 5300
10629 1475 7408
10630 8372 9905
10631 2007 8054
10632 3590 479 
10633 7633 4757
10634 3156 1971
10635 8994 2212
10636 7459 2885
10637 7814 7369
10638 5351 6971
10639 7426 6201
10640 3817 8885
10641 9447 3373
10642 1484 1491
10643 9481 3420
10644 4364 8626
10645 7794 3561
10646 3713 2612
10647 1638 8462
10648 7320 9831
10649 4483 8853
10650 9172 4348
10651 6711 0   
10652 3011 1597
10653 3384 9056
10654 2567 9249
10655 1638 4736
10656 3886 8832
10657 18   978 
10658 6480 1900
10659 2265 8976
10660 6898 6902
10661 8304 9186
10662 845  3952
10663 492  2264
10664 9035 972 
10665 6789 1574
10666 5771 3298
10667 3780 1559
10668 5599 6765
10669 7409 2819
10670 7513 585 
10671 1146 3758
10672 1961 4852
10673 6644 2495
10674 8429 8221
10675 5216 7362
10676 6001 6950
10677 1407 1842
10678 5383 5095
10679 8029 4587
10680 7504 8684
10681 3983 1558
10682 9419 9000
10683 784  414 
10684 7900 1975
10685 9372 6542
10686 2037 2138
10687 473  4965
10688 4750 6692
10689 1758 3688
10690 7944 4767
10691 4067 1663
10692 4451 8521
10693 7025 1741
10694 676  9687
10695 7821 3336
10696 9421 7017
10697 1863 8532
10698 1208 3773
10699 1603 5004
10700 4317 5599
10701 4961 572 
10702 8580 4353
10703 7118 4721
10704 5073 3745
10705 2458 5704
10706 2487 7438
10707 9177 9984
10708 9991 7710
10709 144  5432
10710 7057 4165
10711 8359 7470
10712 1618 1059
10713 9809 5761
10714 5415 1074
10715 1089 2895
10716 3132 4339
10717 1443 4856
10718 7010 3262
10719 3809 5541
10720 9129 29  
10721 1935 7975
10722 616  7858
10723 5641 6296
10724 7133 3793
10725 7938 4127
10726 2029 9049
10727 3314 8548
10728 8158 625 
10729 8512 2007
10730 2460 1861
10731 1150 5332
10732 2281 6408
10733 9120 3461
10734 8249 7873
10735 1929 7710
10736 1619 9175
10737 1993 7642
10738 5131 5264
10739 9544 1592
10740 9213 5099
10741 9481 9680
10742 2806 5511
10743 1342 6407
10744 5711 3183
10745 9741 8919
10746 6939 7444
10747 2760 9878
10748 8709 4236
10749 5571 6332
10750 8109 9661
10751 8826 4206
10752 4676 7190
10753 4540 8475
10754 143  498 
10755 9585 7180
10756 8301 7901
10757 8955 3051
10758 6333 6512
10759 5839 6198
10760 4172 6029
10761 942  1269
10762 8260 7041
10763 1024 5762
10764 8568 6515
10765 9558 1979
10766 4658 9137
10767 5576 841 
10768 8365 3659
10769 6817 8546
10770 1435 2426
10771 3394 4107
10772 3046 5406
10773 4487 9637
10774 6457 7176
10775 1380 8516
10776 8040 9034
10777 3081 2192
10778 2372 2360
10779 1165 76  
10780 8300 3380
10781 8447 7955
10782 6021 3064
10783 1716 1373
10784 874  8791
10785 4728 8073
10786 9369 3285
10787 6104 936 
10788 8627 659 
10789 3164 2827
10790 2553 7160
10791 2758 6785
10792 1721 9433
10793 4373 3037
10794 5263 4572
10795 566  2323
10796 2714 6590
10797 5826 2841
10798 9127 8662
10799 9834 8988
10800 7925 5678
10801 5075 8679
10802 3824 9015
10803 838  5923
10804 761  8717
10805 5890 2413
10806 4601 6702
10807 6959 1774
10808 5134 8311
10809 2936 8297
10810 6741 4313
10811 924  779 
10812 6017 1839
10813 6379 2261
10814 8039 1576
10815 7896 2314
10816 2292 6426
10817 5431 2782
10818 2911 6002
10819 7376 4257
10820 6812 3234
10821 3982 7276
10822 8227 9753
10823 9877 9525
10824 7162 7578
10825 5779 2395
10826 1200 7158
10827 9655 6919
10828 2672 3817
10829 4589 3342
10830 8086 6799
10831 9072 7901
10832 3243 7584
10833 4963 3270
10834 885  7116
10835 8265 6008
10836 4743 2061
10837 7710 6013
10838 3189 8042
10839 7933 7651
10840 929  3871
10841 9326 3915
10842 8512 2454
10843 6269 681 
10844 3590 9950
10845 3981 5830
10846 1105 1051
10847 407  7844
10848 4296 7230
10849 1870 9460
10850 7139 2257
10851 6954 2278
10852 1259 5524
10853 3568 6745
10854 5464 5674
10855 1318 1838
10856 2496 4859
10857 4816 7230
10858 6122 1310
10859 3918 3038
10860 9669 7501
10861 5132 9744
10862 7759 1712
10863 2317 3002
10864 5515 4526
10865 3428 999 
10866 9316 8252
10867 7390 5730
10868 969  8272
10869 1024 1405
10870 2933 5549
10871 9514 6181
10872 4758 2626
10873 9937 6826
10874 9538 7338
10875 4600 8077
10876 1244 1179
10877 4219 5861
10878 4375 411 
10879 8924 5766
10880 2544 5983
10881 1800 4935
10882 8792 9649
10883 6515 1072
10884 7750 8449
10885 4880 7368
10886 5004 7302
10887 9986 3252
10888 6394 1611
10889 2812 1678
10890 9122 3662
10891 2023 7991
10892 390  5574
10893 7305 1890
10894 354  7988
10895 4662 7076
10896 8147 4396
10897 4042 1795
10898 1218 1873
10899 1961 3387
10900 2438 4744
10901 956  5469
10902 6674 9819
10903 1215 1196
10904 3216 2957
10905 5451 3763
10906 1508 8298
10907 4790 7702
10908 1165 4080
10909 949  7081
10910 1448 2843
10911 4828 4632
10912 6667 9143
10913 9178 8197
10914 2221 5852
10915 8615 9000
10916 8661 1583
10917 6532 7908
10918 8171 7171
10919 5464 7830
10920 5205 6764
10921 9550 66  
10922 9073 752 
10923 7857 4461
10924 8731 9847
10925 2294 9448
10926 2632 3578
10927 8230 8868
10928 2225 5881
10929 8596 8517
10930 7281 4110
10931 3796 844 
10932 8530 5858
10933 7421 5525
10934 9815 2459
10935 152  3958
10936 6833 4145
10937 1964 6702
10938 5474 2162
10939 5744 9821
10940 5444 1358
10941 8978 3923
10942 5329 1494
10943 6592 2175
10944 965  2517
10945 9061 4573
10946 7463 7480
10947 2383 4029
10948 6327 7995
10949 5592 5110
10950 9732 3998
10951 4947 617 
10952 8823 573 
10953 7237 3124
10954 976  8925
10955 8195 5409
10956 6583 161 
10957 7756 680 
10958 2980 5192
10959 361  3177
10960 677  2253
10961 4875 6695
10962 8797 9873
10963 6055 3692
10964 1922 4341
10965 1035 1564
10966 6288 2519
10967 4488 4852
10968 8173 2779
10969 7089 2659
10970 8347 7965
10971 4102 4388
10972 6663 2337
10973 2439 6049
10974 6122 6898
10975 3982 3611
10976 3906 8814
10977 3670 8533
10978 8839 9557
10979 7096 1607
10980 3034 320 
10981 4541 5407
10982 3625 5020
10983 9620 7901
10984 8997 9327
10985 9139 6112
10986 6781 4750
10987 313  6440
10988 5053 6440
10989 3055 5699
10990 8405 6007
10991 5979 5043
10992 8098 96  
10993 8855 9319
10994 871  9545
10995 7014 3570
10996 7921 7761
10997 844  8808
10998 9131 836 
10999 1844 6325
11000 9991 7399
11001 3160 1433
11002 4259 5682
11003 5642 6939
11004 4053 4369
11005 5035 9747
11006 955  5078
11007 626  1356
11008 1367 8124
11009 9582 8742
11010 656  545 
11011 3951 4939
11012 6618 2571
11013 5509 259 
11014 5307 5044
11015 6055 9197
11016 7507 7771
11017 2584 9517
11018 3481 1684
11019 7036 7456
11020 2429 9016
11021 7317 9292
11022 3667 3974
11023 3637 1826
11024 8408 7620
11025 7000 6329
11026 8387 1870
11027 4661 3833
11028 8988 3560
11029 7550 7135
11030 2079 0   
11031 3002 2969
11032 7281 6735
11033 5088 5274
11034 4217 8703
11035 9181 2666
11036 6367 538 
11037 1539 5949
11038 7316 2641
11039 6280 5018
11040 9577 6907
11041 3343 6424
11042 423  6357
11043 1911 6908
11044 6667 7811
11045 4242 6458
11046 9591 233 
11047 850  1607
11048 9782 8935
11049 6454 3200
11050 7553 383 
11051 4869 5060
11052 9363 5212
11053 6921 8738
11054 9665 5713
11055 9076 3420
11056 7151 8210
11057 8909 2835
11058 6224 344 
11059 9943 5267
11060 5118 169 
11061 1810 7173
11062 4304 411 
11063 1903 5767
11064 4599 8251
11065 541  8005
11066 8886 2467
11067 3876 3076
11068 1213 4000
11069 8050 3591
11070 6273 1986
11071 7814 5384
11072 7787 1061
11073 5745 949 
11074 2762 7989
11075 7448 1837
11076 954  2251
11077 9840 2840
11078 6696 8930
11079 3177 2319
11080 1663 6608
11081 7470 9272
11082 6504 8141
11083 7368 8941
11084 1619 9565
11085 9722 1526
11086 4468 2772
11087 699  1064
11088 3988 6304
11089 6785 2777
11090 2495 8370
11091 4220 1790
11092 2115 4040
11093 3003 3688
11094 9456 1062
11095 5506 885 
11096 9804 1651
11097 1171 9721
11098 8091 854 
11099 670  1018
11100 2574 2962
11101 8611 3211
11102 5955 6111
11103 5630 4606
11104 3846 2023
11105 595  7315
11106 4690 165 
11107 7581 7554
11108 4203 8667
11109 7755 8595
11110 6962 545 
11111 297  885 
11112 6263 3575
11113 1901 2374
11114 5632 902 
11115 2427 6952
11116 3442 2188
11117 8265 8879
11118 6343 3532
11119 6935 8745
11120 7577 4143
11121 657  7771
11122 9033 3392
11123 7548 4030
11124 2798 3678
11125 9466 5110
11126 99   649 
11127 2469 5307
11128 4437 7398
11129 7427 8783
11130 3882 2152
11131 351  9168
11132 3034 8546
11133 9293 2150
11134 3347 9327
11135 7889 1370
11136 3944 1143
11137 2634 7685
11138 8655 8962
11139 2164 5315
11140 3177 9527
11141 2138 7979
11142 1682 6844
11143 5361 1772
11144 3126 861 
11145 8456 6   
11146 7694 4490
11147 9626 6454
11148 4854 3130
11149 1221 3188
11150 211  5859
11151 4949 2770
11152 5539 7013
11153 9905 8925
11154 8081 7613
11155 4474 9986
11156 5796 4663
11157 2235 7115
11158 2365 2044
11159 6660 9783
11160 8623 4358
11161 991  6562
11162 7034 3847
11163 1988 4074
11164 3914 1259
11165 8271 9880
11166 1040 7519
11167 6432 7250
11168 3200 5420
11169 7061 2309
11170 6364 8250
11171 3706 3884
11172 9426 4458
11173 8033 729 
11174 5638 8639
11175 5255 318 
11176 7292 3636
11177 5046 5642
11178 5791 4832
11179 4834 4612
11180 3118 2941
11181 2185 8428
11182 425  8199
11183 7216 6620
11184 8424 7433
11185 4493 7261
11186 3398 4623
11187 4592 1965
11188 7614 7744
11189 4249 2949
11190 6563 5109
11191 1003 5685
11192 8510 5557
11193 9281 3258
11194 989  2911
11195 2406 9886
11196 5302 4526
11197 6101 8484
11198 6111 4728
11199 6058 3444
11200 4457 632 
11201 4099 89  
11202 807  1324
11203 4605 5524
11204 6645 7671
11205 5110 3763
11206 2310 7319
11207 73   8056
11208 4163 8462
11209 8204 4533
11210 8182 6157
11211 12   1593
11212 2358 6227
11213 5724 4160
11214 2984 3985
11215 8138 7455
11216 9497 2642
11217 5441 562 
11218 7976 7517
11219 2426 9458
11220 6668 9748
11221 4280 3058
11222 5136 95  
11223 7279 281 
11224 6256 4724
11225 4332 4458
11226 9490 5495
11227 9318 1043
11228 7775 4358
11229 6465 1516
11230 6894 7219
11231 1907 7025
11232 8952 2095
11233 5793 5704
11234 2766 9609
11235 3787 2020
11236 7382 7032
11237 73   7277
11238 8604 1042
11239 5413 2698
11240 2640 9846
11241 4507 7783
11242 4608 5514
11243 5868 7408
11244 4655 1395
11245 6874 3820
11246 9362 1120
11247 1186 4731
11248 809  9497
11249 7612 2776
11250 136  7011
11251 137  2051
11252 2496 3276
11253 2025 7090
11254 4007 1341
11255 1071 4395
11256 5625 5461
11257 6547 8862
11258 8539 5799
11259 1203 9135
11260 3276 5418
11261 5837 3082
11262 6783 880 
11263 9093 3827
11264 5195 954 
11265 1822 1322
11266 5496 7987
11267 1674 8917
11268 4815 4530
11269 9412 1269
11270 9778 514 
11271 6227 7248
11272 3797 5436
11273 1388 6668
11274 8752 744 
11275 3904 4038
11276 7949 3432
11277 6515 4006
11278 5315 9910
11279 9437 7360
11280 6178 3114
11281 8013 2438
11282 7458 1423
11283 6540 8821
11284 6717 8851
11285 4089 537 
11286 9257 956 
11287 7922 2259
11288 4168 1042
11289 3656 6043
11290 3759 2096
11291 7074 8211
11292 4205 5293
11293 8076 2629
11294 4873 9437
11295 2039 737 
11296 1504 9284
11297 6367 859 
11298 866  7574
11299 2760 3206
11300 3174 4808
11301 3965 4147
11302 321  4559
11303 787  9871
11304 4262 2971
11305 9365 1703
11306 1736 4634
11307 3895 4825
11308 2771 316 
11309 4779 4235
11310 4146 236 
11311 4552 9110
11312 243  6882
11313 47   2505
11314 7784 1743
11315 1206 5391
11316 5905 9780
11317 8944 4795
11318 9134 8437
11319 5193 6886
11320 6472 5754
11321 5070 6973
11322 6732 2760
11323 5557 8404
11324 2905 6782
11325 8458 9319
11326 4190 7952
11327 3914 1268
11328 1971 407 
11329 686  9864
11330 7523 6117
11331 3485 9362
11332 3146 2801
11333 694  3535
11334 7531 2166
11335 9094 4279
11336 371  3286
11337 3786 669 
11338 9811 3179
11339 1920 7874
11340 1138 3936
11341 529  3272
11342 4577 7248
11343 5634 4845
11344 9807 2056
11345 1773 9949
11346 4759 3759
11347 2665 2579
11348 2360 9606
11349 495  1607
11350 4561 4826
11351 7715 9264
11352 3034 2799
11353 4939 3536
11354 5535 7420
11355 7350 6978
11356 7638 7714
11357 1712 240 
11358 3951 6250
11359 7106 650 
11360 6335 9197
11361 8534 7784
11362 974  8739
11363 4833 639 
11364 3162 1257
11365 4701 8299
11366 2868 5796
11367 8387 8027
11368 884  6585
11369 2139 8013
11370 7249 885 
11371 4741 727 
11372 6271 3846
11373 61   1671
11374 7873 1996
11375 4221 6826
11376 8442 8604
11377 7770 5179
11378 6632 1783
11379 9895 7585
11380 8440 5756
11381 2168 1744
11382 1444 5137
11383 5998 2631
11384 2048 8619
11385 7960 6594
11386 3379 3053
11387 674  9618
11388 3518 1544
11389 4750 8742
11390 243  1944
11391 9669 1722
11392 9589 4491
11393 8549 7785
11394 7963 2160
11395 5171 9694
11396 9961 6682
11397 9036 1487
11398 9267 3241
11399 382  8863
11400 5124 628 
11401 7951 6233
11402 1409 8141
11403 3205 5614
11404 1926 7021
11405 6743 1409
11406 6176 7305
11407 5631 2750
11408 6543 6046
11409 7262 4933
11410 4826 7661
11411 9614 3106
11412 6733 2209
11413 6597 2825
11414 6782 3811
11415 9489 4052
11416 3639 4553
11417 5130 5973
11418 5224 4924
11419 6795 6066
11420 937  9492
11421 5893 813 
11422 9518 8808
11423 2280 5452
11424 6207 105 
11425 1768 1451
11426 2491 9612
11427 3647 6928
11428 4068 2358
11429 3010 5774
11430 5475 6764
11431 843  5346
11432 9825 9476
11433 5654 2099
11434 4355 8018
11435 3844 3722
11436 7436 5684
11437 2494 9454
11438 9785 8569
11439 2249 3530
11440 9794 9839
11441 4854 7132
11442 9797 4170
11443 5790 9966
11444 3286 1819
11445 271  8291
11446 387  5968
11447 7590 9647
11448 5015 875 
11449 9212 8554
11450 4592 7233
11451 1602 1440
11452 7221 6026
11453 7355 6085
11454 5145 9923
11455 7650 5147
11456 4057 1802
11457 6357 8345
11458 8991 4797
11459 2329 1458
11460 2064 9058
11461 9580 6839
11462 2121 8928
11463 4767 7581
11464 3074 5535
11465 496  9314
11466 7057 1165
11467 7536 2040
11468 1289 217 
11469 3506 33  
11470 5657 6635
11471 3114 9035
11472 1144 7441
11473 4914 5916
11474 1522 5554
11475 3115 1164
11476 3413 7464
11477 3392 9287
11478 1262 8877
11479 8228 7501
11480 6631 9822
11481 8606 4029
11482 4559 5916
11483 489  2027
11484 8885 4562
11485 251  3105
11486 6938 3259
11487 1321 6625
11488 1041 2729
11489 5135 4028
11490 544  4546
11491 2914 2042
11492 5691 445 
11493 830  6339
11494 5865 5322
11495 707  5663
11496 8218 8913
11497 2103 4570
11498 2157 8800
11499 5332 6316
11500 3696 6429
11501 9281 7986
11502 5370 4262
11503 3913 1395
11504 9816 6932
11505 1668 9148
11506 2346 5525
11507 7302 3569
11508 4665 1884
11509 41   7086
11510 8091 7125
11511 6856 597 
11512 8175 5875
11513 4449 8162
11514 1969 3461
11515 7925 820 
11516 3060 2713
11517 4003 1037
11518 9956 5681
11519 7764 5693
11520 9121 3070
11521 4225 1822
11522 2024 4622
11523 4911 2526
11524 1513 9386
11525 8283 6660
11526 7876 4738
11527 6587 6710
11528 9773 3531
11529 295  9332
11530 3476 524 
11531 4819 9971
11532 140  1754
11533 1423 6923
11534 2405 7445
11535 6151 6167
11536 9446 3347
11537 8560 2565
11538 1426 9796
11539 6830 4207
11540 6529 8413
11541 8758 2976
11542 3317 633 
11543 3198 5035
11544 2924 3220
11545 1046 8920
11546 7822 4658
11547 6437 7343
11548 7244 9878
11549 8645 1736
11550 4030 8681
11551 1211 428 
11552 1807 4223
11553 8913 2657
11554 8293 5870
11555 5475 4415
11556 1712 4238
11557 9077 5159
11558 3441 3825
11559 5947 6102
11560 1284 1351
11561 1338 3680
11562 6116 2939
11563 8451 5298
11564 7806 2656
11565 6652 669 
11566 6339 4597
11567 2145 5861
11568 3026 4262
11569 3516 8379
11570 3587 8248
11571 9441 4899
11572 2661 4426
11573 4727 2943
11574 9836 8703
11575 586  3713
11576 8056 7756
11577 8674 9807
11578 9781 2702
11579 4005 6865
11580 762  781 
11581 8809 179 
11582 662  9148
11583 4797 7716
11584 9246 120 
11585 3919 1873
11586 4456 6361
11587 7877 9764
11588 3559 2662
11589 5904 7363
11590 7023 7078
11591 8048 3904
11592 3081 1906
11593 8395 1753
11594 2672 5656
11595 8993 7839
11596 1541 487 
11597 3602 6843
11598 8154 7400
11599 9817 4380
11600 3093 3896
11601 7569 655 
11602 5613 4411
11603 2273 7794
11604 47   4265
11605 6541 5440
11606 9538 7793
11607 3001 3658
11608 2109 4465
11609 8432 1439
11610 9057 1932
11611 2730 7120
11612 9248 3027
11613 534  492 
11614 4904 6581
11615 448  4110
11616 2589 1803
11617 9329 5439
11618 683  7159
11619 1018 9022
11620 5347 2640
11621 8579 9294
11622 8779 1352
11623 1449 7368
11624 1501 432 
11625 3997 6656
11626 5139 2063
11627 5241 4308
11628 8199 7484
11629 1614 6036
11630 6493 399 
11631 151  8109
11632 9964 6710
11633 8851 9439
11634 623  9625
11635 8451 1445
11636 7100 2251
11637 765  6548
11638 8760 2274
11639 3404 4061
11640 140  1980
11641 8079 6874
11642 4012 8008
11643 1691 8839
11644 5613 829 
11645 2840 3159
11646 9012 8496
11647 8442 1423
11648 5526 5464
11649 9771 5410
11650 534  4517
11651 5574 7779
11652 6122 1976
11653 6536 350 
11654 1099 8152
11655 6095 3159
11656 370  7942
11657 2937 4417
11658 9921 736 
11659 62   5901
11660 6438 7652
11661 7548 6902
11662 6841 2604
11663 2162 9863
11664 2114 9100
11665 164  8330
11666 527  4311
11667 8693 8604
11668 1884 8284
11669 3571 3716
11670 2790 7872
11671 5584 3511
11672 3241 6451
11673 6782 6555
11674 4312 4243
11675 5874 3503
11676 8813 4527
11677 8070 9727
11678 209  8607
11679 194  5144
11680 5116 7409
11681 4213 822 
11682 4631 8009
11683 9463 707 
11684 2592 7337
11685 2725 7114
11686 6810 7924
11687 7365 8370
11688 8293 2642
11689 8997 6045
11690 8785 4751
11691 7167 5052
11692 8999 6211
11693 6663 8434
11694 4632 2861
11695 2993 9680
11696 9331 5460
11697 5371 3741
11698 9565 2823
11699 8058 3101
11700 1638 4761
11701 8286 5809
11702 984  1547
11703 7549 7706
11704 5556 272 
11705 9149 8220
11706 3259 9915
11707 1890 1598
11708 5244 7683
11709 4578 906 
11710 1201 3679
11711 4904 5139
11712 2670 1556
11713 9241 5352
11714 2325 5319
11715 5967 6032
11716 9051 480 
11717 6067 8680
11718 2419 6696
11719 1314 4198
11720 8942 6623
11721 460  1102
11722 6234 8718
11723 6417 4450
11724 6340 7607
11725 3377 1724
11726 5854 2005
11727 3705 6280
11728 9591 9074
11729 858  5871
11730 8891 4251
11731 4314 1639
11732 5792 8675
11733 1546 4231
11734 7339 4892
11735 6247 7908
11736 3037 7085
11737 4685 7561
11738 3192 9726
11739 2084 7208
11740 5097 1919
11741 2308 8578
11742 4764 7002
11743 1197 2187
11744 8413 7176
11745 1954 6794
11746 7688 2409
11747 864  5701
11748 5587 1005
11749 3997 7402
11750 5561 3088
11751 9894 4264
11752 6480 7524
11753 4128 788 
11754 7455 5235
11755 2914 3026
11756 3583 240 
11757 5469 6816
11758 965  3507
11759 2173 5965
11760 8401 7291
11761 496  1842
11762 5140 5443
11763 5941 2146
11764 9057 3441
11765 411  1648
11766 8642 9634
11767 6275 6149
11768 2468 8943
11769 1691 2000
11770 2464 7654
11771 59   9130
11772 6608 376 
11773 9120 2327
11774 4163 6638
11775 8314 4779
11776 5319 8223
11777 2903 5295
11778 2254 565 
11779 2905 6818
11780 7546 7149
11781 9284 4519
11782 6845 4024
11783 467  3654
11784 2836 1973
11785 1386 3856
11786 9600 1305
11787 8704 5926
11788 6003 5761
11789 8182 8343
11790 6402 201 
11791 4714 5482
11792 1760 9748
11793 3232 6412
11794 9289 5610
11795 417  56  
11796 3983 2808
11797 7648 9006
11798 6430 3298
11799 2077 6219
11800 9389 5270
11801 5917 508 
11802 8514 3773
11803 3515 8185
11804 2921 1660
11805 8605 7087
11806 6630 175 
11807 3333 3270
11808 1851 9420
11809 3854 6680
11810 8868 3925
11811 6474 6205
11812 4631 9846
11813 8297 9162
11814 9610 4981
11815 1232 885 
11816 6759 1589
11817 9862 2306
11818 7629 5832
11819 6959 9609
11820 329  2540
11821 3929 2813
11822 7886 7844
11823 5632 8814
11824 3083 8643
11825 6898 7580
11826 9579 2991
11827 5384 2426
11828 1068 1103
11829 9990 3164
11830 3236 6276
11831 6887 5852
11832 5345 5420
11833 2194 4026
11834 2265 8653
11835 859  7624
11836 4855 2501
11837 3252 5656
11838 4804 6661
11839 9523 4679
11840 8808 1068
11841 5882 7089
11842 6279 791 
11843 1888 226 
11844 3316 1133
11845 8599 5054
11846 8633 2992
11847 4216 1949
11848 54   2262
11849 8151 1416
11850 6649 2485
11851 7945 1651
11852 6872 4352
11853 7276 9934
11854 9279 9604
11855 5570 5684
11856 2366 4517
11857 162  1529
11858 2768 7288
11859 9152 801 
11860 6208 3130
11861 3588 9779
11862 8400 2721
11863 2311 9982
11864 659  9300
11865 4362 7004
11866 2615 1788
11867 9331 3303
11868 3485 4554
11869 9300 3846
11870 1040 1255
11871 4692 8684
11872 2914 8659
11873 6411 670 
11874 346  1242
11875 8406 4561
11876 2175 1271
11877 2985 657 
11878 3701 2117
11879 2528 936 
11880 6116 1385
11881 2185 5762
11882 9057 6349
11883 613  2546
11884 9104 7287
11885 808  2249
11886 4617 882 
11887 1778 6516
11888 7985 5778
11889 8712 163 
11890 5117 103 
11891 545  8570
11892 5211 1703
11893 52   4709
11894 7551 4579
11895 6730 4931
11896 5702 9264
11897 8626 768 
11898 792  7034
11899 5825 2440
11900 6389 9599
11901 6904 6954
11902 262  8613
11903 7127 7537
11904 5162 4298
11905 1730 3307
11906 439  642 
11907 5176 5646
11908 7554 4556
11909 48   5965
11910 7091 2120
11911 1561 24  
11912 7961 6995
11913 3995 1810
11914 8382 6922
11915 135  2391
11916 2220 6828
11917 6010 515 
11918 5285 6663
11919 2119 8338
11920 1689 8378
11921 4620 4310
11922 3766 4276
11923 8719 2145
11924 5752 2509
11925 4613 2139
11926 8733 5220
11927 7581 8133
11928 7670 7636
11929 6589 2876
11930 9735 1978
11931 5024 1357
11932 7864 4366
11933 111  5001
11934 2312 4347
11935 764  2374
11936 5505 9336
11937 4256 5101
11938 1291 4566
11939 6263 4911
11940 7921 5401
11941 0    3396
11942 5392 4690
11943 3057 1874
11944 9333 3383
11945 4502 4378
11946 1691 4614
11947 4566 4584
11948 8960 8063
11949 551  9162
11950 4293 2716
11951 3075 8036
11952 2459 867 
11953 6512 8722
11954 8893 8922
11955 5033 9626
11956 356  2949
11957 8737 4539
11958 8169 8299
11959 1572 5054
11960 9435 4541
11961 9806 4188
11962 1336 4017
11963 544  3661
11964 5886 6876
11965 2306 4399
11966 2018 1284
11967 7974 8750
11968 8306 4506
11969 4410 1576
11970 216  9667
11971 1297 2467
11972 5429 395 
11973 9351 3446
11974 9983 9162
11975 6071 4985
11976 9750 3956
11977 8228 421 
11978 4082 7118
11979 5495 8896
11980 3313 9160
11981 3882 8849
11982 3190 17  
11983 6145 6953
11984 5765 7009
11985 6405 5374
11986 6842 2447
11987 9740 5370
11988 6827 1833
11989 9988 3249
11990 3540 9223
11991 2429 5134
11992 8694 9535
11993 8268 7797
11994 7612 5541
11995 8495 9366
11996 3660 6309
11997 8301 9118
11998 611  8465
11999 4044 7081
12000 5550 2218
12001 8760 2408
12002 6577 7293
12003 4266 4472
12004 1376 931 
12005 7997 7140
12006 880  786 
12007 5138 663 
12008 9483 1479
12009 868  8678
12010 7114 4198
12011 8617 5187
12012 231  9874
12013 9369 1792
12014 7590 8322
12015 5983 6883
12016 8171 1266
12017 8938 6381
12018 1322 5394
12019 2579 8549
12020 8149 1315
12021 3513 8935
12022 5828 1804
12023 1102 7706
12024 7913 6637
12025 7517 9459
12026 2722 5694
12027 6031 6631
12028 9281 2200
12029 4004 6611
12030 3262 2   
12031 7801 1185
12032 4511 4426
12033 2456 5798
12034 1414 7925
12035 6754 1570
12036 4137 1582
12037 356  9047
12038 5758 1322
12039 4176 431 
12040 8451 1496
12041 5785 522 
12042 7580 990 
12043 2247 1388
12044 1310 1419
12045 9385 2756
12046 3171 9636
12047 5172 3619
12048 1970 7992
12049 5139 5051
12050 2120 7559
12051 9729 64  
12052 3110 8506
12053 6935 1880
12054 2119 3368
12055 5629 9351
12056 3664 7081
12057 7612 6211
12058 8372 6578
12059 6579 1419
12060 7946 178 
12061 2591 5881
12062 6526 2674
12063 4779 2308
12064 2829 7789
12065 1025 759 
12066 215  7881
12067 5580 1034
12068 8635 5948
12069 6557 7355
12070 6649 8573
12071 2080 5152
12072 609  419 
12073 1903 6243
12074 4015 1234
12075 8150 7563
12076 9028 8117
12077 5392 2131
12078 8024 9673
12079 304  8561
12080 4937 5659
12081 3265 9274
12082 5400 5158
12083 7716 4452
12084 7804 9748
12085 4266 8189
12086 5897 6407
12087 6987 7646
12088 3565 5915
12089 6359 5004
12090 3102 993 
12091 7215 387 
12092 9924 2522
12093 9600 8165
12094 3840 3173
12095 9176 1246
12096 2142 8282
12097 3534 5267
12098 9553 5377
12099 9703 2526
12100 9321 2373
12101 1069 4780
12102 9578 2052
12103 8921 9970
12104 7064 7641
12105 2162 6386
12106 9746 9357
12107 1095 6880
12108 235  9890
12109 2221 3388
12110 5114 6000
12111 6120 591 
12112 4915 5141
12113 5183 5771
12114 1548 1492
12115 9559 4367
12116 3184 6009
12117 6713 98  
12118 9965 9718
12119 9245 7377
12120 5024 1006
12121 9815 9160
12122 4932 7766
12123 5528 2882
12124 2367 3326
12125 510  5338
12126 8514 8575
12127 9215 112 
12128 7731 7106
12129 5174 2674
12130 8881 7811
12131 4600 2306
12132 475  5278
12133 7006 7621
12134 2085 5077
12135 4787 1247
12136 924  3893
12137 3875 3260
12138 3093 1255
12139 9443 5764
12140 3583 3165
12141 3551 7111
12142 8756 5782
12143 1829 4491
12144 2451 2426
12145 5616 1379
12146 5180 8873
12147 7407 4353
12148 8446 5419
12149 1901 9798
12150 7133 7052
12151 4844 4529
12152 2189 7338
12153 8218 6651
12154 3140 2020
12155 5142 1043
12156 8089 5710
12157 3655 6096
12158 4200 5458
12159 3861 1168
12160 6419 4180
12161 5176 233 
12162 1412 4389
12163 4071 6200
12164 5533 299 
12165 9698 1079
12166 9736 7112
12167 8223 4343
12168 3757 2409
12169 7304 6288
12170 9118 2380
12171 7851 1233
12172 2447 2399
12173 576  4395
12174 9963 7952
12175 9565 1063
12176 2608 7760
12177 692  8854
12178 6357 3139
12179 4345 6112
12180 6719 210 
12181 3388 3888
12182 3651 4838
12183 3084 5392
12184 9595 7039
12185 4892 5959
12186 5901 21  
12187 2163 8158
12188 5051 5269
12189 5321 6120
12190 8401 6103
12191 3389 3792
12192 265  3181
12193 161  7500
12194 3954 5487
12195 4705 648 
12196 37   7482
12197 7452 2625
12198 5655 3693
12199 9702 622 
12200 9742 7312
12201 451  8749
12202 3001 4461
12203 7339 5203
12204 7866 8153
12205 2476 3903
12206 1260 4164
12207 2889 5166
12208 9568 6703
12209 9343 8019
12210 3596 4601
12211 6205 9472
12212 4196 5520
12213 3445 810 
12214 3228 960 
12215 7267 9550
12216 8454 51  
12217 9898 4498
12218 8525 8721
12219 4959 2334
12220 1000 6138
12221 8517 5790
12222 7164 3076
12223 2474 4144
12224 4023 3938
12225 8095 6001
12226 2952 8947
12227 8877 1383
12228 917  3466
12229 42   4931
12230 7911 1754
12231 7998 9134
12232 4411 5582
12233 6829 848 
12234 9402 2601
12235 6550 3347
12236 605  8407
12237 6831 9533
12238 7201 7933
12239 3232 3902
12240 7149 2783
12241 3355 5440
12242 8366 9131
12243 5081 4656
12244 4517 9386
12245 750  9023
12246 1139 8061
12247 8400 700 
12248 7076 8025
12249 3659 4827
12250 7870 8440
12251 7890 1997
12252 1221 2032
12253 3685 8294
12254 5477 1415
12255 5231 2752
12256 2121 6825
12257 9346 7818
12258 4071 4799
12259 7568 3636
12260 9129 5183
12261 5016 267 
12262 5519 6767
12263 6696 6031
12264 6494 3469
12265 4305 1640
12266 6417 5887
12267 4493 4390
12268 2395 3069
12269 4147 1051
12270 167  7812
12271 6184 132 
12272 1003 2896
12273 1055 129 
12274 8615 7072
12275 3171 4975
12276 4919 6611
12277 4002 573 
12278 2826 9547
12279 8076 8288
12280 2118 8779
12281 7888 4015
12282 5532 4973
12283 5444 5204
12284 9029 264 
12285 5203 3774
12286 4970 9537
12287 2069 4819
12288 4184 5874
12289 9697 7500
12290 7013 3957
12291 3183 9703
12292 7702 161 
12293 7256 5098
12294 4736 1052
12295 9328 4332
12296 6563 578 
12297 8252 9695
12298 8791 2877
12299 3445 7070
12300 419  9215
12301 3874 3478
12302 1151 5276
12303 7333 4465
12304 8523 213 
12305 4508 858 
12306 8179 5236
12307 3866 312 
12308 9620 7862
12309 4655 738 
12310 5947 2222
12311 4398 4972
12312 6649 6299
12313 9862 9335
12314 2991 7547
12315 4622 8792
12316 350  8918
12317 8796 2427
12318 2732 8200
12319 5670 7822
12320 837  9022
12321 7214 4639
12322 9700 1295
12323 7644 8416
12324 4271 1295
12325 4695 2823
12326 3182 8509
12327 53   4686
12328 4723 8447
12329 4067 6528
12330 7940 2363
12331 2860 4209
12332 6218 3721
12333 8760 9382
12334 2325 2815
12335 624  5984
12336 6431 2327
12337 6791 9916
12338 5730 4164
12339 3600 614 
12340 2985 2966
12341 7235 1278
12342 6154 8850
12343 3576 2593
12344 7405 5726
12345 2909 4622
12346 5528 8842
12347 7917 919 
12348 9819 2162
12349 9276 5852
12350 6410 3919
12351 719  6827
12352 3946 2761
12353 6887 4265
12354 4717 1942
12355 3193 5118
12356 9657 9567
12357 7963 5465
12358 3450 3519
12359 5911 9646
12360 835  8146
12361 3242 9206
12362 9357 2928
12363 5450 5938
12364 4851 5154
12365 7650 1922
12366 7950 7124
12367 4620 3511
12368 3862 7201
12369 3510 4631
12370 3038 7360
12371 4112 3525
12372 3507 3731
12373 9467 7565
12374 2181 7892
12375 5135 7110
12376 3079 831 
12377 8174 6804
12378 3955 8607
12379 9512 6036
12380 8849 3673
12381 1689 1941
12382 7313 7857
12383 9455 2594
12384 932  557 
12385 5756 4686
12386 3152 5263
12387 2544 3636
12388 2295 630 
12389 7299 4629
12390 3941 751 
12391 4792 7348
12392 6687 2140
12393 5957 1252
12394 3748 4188
12395 2506 6374
12396 4021 1576
12397 3541 1982
12398 4082 4574
12399 9237 7751
12400 9725 7259
12401 717  2465
12402 590  2193
12403 7262 7650
12404 4038 1944
12405 5627 3691
12406 5491 2804
12407 7507 2958
12408 1183 4310
12409 3371 7194
12410 9876 6044
12411 7244 1259
12412 2374 4118
12413 1862 9691
12414 5874 5101
12415 5552 6846
12416 8071 7122
12417 5702 8280
12418 7207 6335
12419 2036 7314
12420 1028 6815
12421 5165 6422
12422 2374 3271
12423 6430 5120
12424 821  1088
12425 831  4371
12426 1814 9195
12427 9195 687 
12428 6857 813 
12429 8799 5170
12430 3128 5712
12431 51   7970
12432 8893 7194
12433 8017 7439
12434 8344 6820
12435 5892 4634
12436 657  1571
12437 5137 7670
12438 5231 718 
12439 5305 5762
12440 3574 8447
12441 7666 576 
12442 7481 2320
12443 7333 3871
12444 2926 2853
12445 5771 2537
12446 7813 8857
12447 2271 5237
12448 2798 3639
12449 4629 9469
12450 265  8937
12451 9255 9458
12452 4167 9545
12453 5584 7496
12454 5494 5071
12455 8539 3916
12456 4436 7018
12457 1594 229 
12458 7535 6514
12459 3040 5404
12460 2765 4705
12461 1160 1898
12462 5446 8277
12463 6951 2226
12464 990  6051
12465 6740 8895
12466 6284 5932
12467 5708 6885
12468 6444 6175
12469 7087 5447
12470 8162 3833
12471 6907 5195
12472 9573 5284
12473 4345 6699
12474 8744 1527
12475 7357 8617
12476 9477 2449
12477 2447 5344
12478 8635 8032
12479 2675 6353
12480 2330 3388
12481 2549 8419
12482 2846 988 
12483 1089 5478
12484 175  3016
12485 5617 4880
12486 5021 1541
12487 6417 965 
12488 7089 4934
12489 8080 6501
12490 979  902 
12491 9471 740 
12492 1359 9788
12493 3072 5346
12494 6517 6713
12495 8958 6988
12496 98   3805
12497 1653 7855
12498 1846 5655
12499 2765 4366
12500 943  9162
12501 6094 2307
12502 35   3141
12503 3356 7985
12504 9582 1808
12505 2362 7617
12506 36   1714
12507 2387 9531
12508 5467 7210
12509 6190 8162
12510 3892 9201
12511 5089 8781
12512 9020 9998
12513 785  3927
12514 3169 3390
12515 6031 1549
12516 811  6792
12517 7731 2331
12518 3746 8033
12519 1130 3150
12520 2507 1396
12521 3440 2502
12522 9625 2118
12523 9153 8292
12524 4189 6030
12525 2858 2780
12526 9505 821 
12527 1353 3064
12528 2422 1401
12529 4258 9350
12530 3196 3204
12531 7916 1248
12532 7688 8117
12533 462  3128
12534 5550 5952
12535 3258 70  
12536 8249 1392
12537 6399 8122
12538 3125 6787
12539 985  1627
12540 3984 1327
12541 7101 6661
12542 1717 6324
12543 8644 7474
12544 7969 6947
12545 6801 3475
12546 7522 5854
12547 9715 1071
12548 3375 3965
12549 8398 7214
12550 8292 8725
12551 9786 9197
12552 6544 4722
12553 9970 6391
12554 8275 5032
12555 4969 8480
12556 8968 9506
12557 5493 6843
12558 8189 1151
12559 1398 5444
12560 1494 575 
12561 8535 6780
12562 555  351 
12563 2846 9513
12564 6520 5968
12565 4993 1701
12566 6651 4551
12567 36   7384
12568 1827 322 
12569 7401 1723
12570 7940 1838
12571 3261 4854
12572 9950 9413
12573 5261 1238
12574 3125 8565
12575 5396 6078
12576 5342 2122
12577 2986 3578
12578 7627 8837
12579 2724 8018
12580 4873 9547
12581 8647 4040
12582 7053 5687
12583 7527 4032
12584 1526 9508
12585 8210 3760
12586 8723 2454
12587 7843 6978
12588 9812 3660
12589 3229 6303
12590 5000 7519
12591 102  3589
12592 2255 909 
12593 101  5514
12594 1403 9806
12595 1966 8166
12596 8778 7732
12597 1685 6949
12598 5656 8545
12599 9054 5176
12600 7609 6140
12601 7593 7559
12602 7031 2563
12603 6716 5569
12604 5374 7534
12605 8699 9903
12606 9634 5899
12607 302  4187
12608 473  3547
12609 8114 5453
12610 3627 7153
12611 3189 5632
12612 1785 7610
12613 4162 9472
12614 2955 2206
12615 6876 848 
12616 8742 2625
12617 9902 3801
12618 5865 1628
12619 8364 2559
12620 208  6080
12621 151  8249
12622 4164 7082
12623 2702 9137
12624 3821 5283
12625 132  3744
12626 2887 4137
12627 1995 9886
12628 980  6728
12629 31   1451
12630 6421 1544
12631 192  2769
12632 9926 4569
12633 369  6532
12634 7759 2122
12635 5868 1694
12636 9884 2712
12637 6720 6209
12638 6925 2371
12639 8570 8471
12640 9080 2361
12641 1446 5959
12642 5114 1889
12643 3538 1378
12644 9642 3923
12645 7252 395 
12646 2792 8019
12647 7742 2886
12648 7033 2928
12649 8334 8178
12650 2862 2066
12651 6880 9132
12652 5457 8098
12653 3741 5665
12654 3846 1368
12655 4342 725 
12656 626  5720
12657 7058 7749
12658 9689 9891
12659 7726 8119
12660 2521 1322
12661 2550 7054
12662 4002 8023
12663 1728 9513
12664 5193 8805
12665 964  4191
12666 5046 8149
12667 7873 6815
12668 7454 8314
12669 753  6889
12670 3736 4379
12671 6434 1824
12672 1356 407 
12673 2265 5859
12674 8441 5379
12675 21   3416
12676 2132 1229
12677 8060 4674
12678 9348 3960
12679 4507 2039
12680 8541 6687
12681 714  2393
12682 4755 970 
12683 9722 262 
12684 1898 1027
12685 5897 4335
12686 2866 2671
12687 2821 9297
12688 844  775 
12689 6087 1740
12690 2879 1699
12691 878  8745
12692 5285 7856
12693 6648 8379
12694 4295 7123
12695 2716 2612
12696 5130 5151
12697 4503 3551
12698 7720 4855
12699 8343 305 
12700 5484 7571
12701 9005 2205
12702 519  49  
12703 8353 4797
12704 297  6521
12705 6178 9395
12706 7802 7144
12707 8256 2443
12708 4566 6905
12709 4552 4076
12710 6546 1178
12711 256  5392
12712 2455 8403
12713 288  5462
12714 4141 7600
12715 7160 426 
12716 4156 9266
12717 1813 4352
12718 7922 7532
12719 1765 7781
12720 4769 9751
12721 975  4503
12722 1371 5805
12723 1241 973 
12724 5758 4961
12725 1153 3308
12726 6535 9197
12727 4623 6005
12728 5334 5892
12729 9604 5749
12730 386  7256
12731 7439 2067
12732 7019 8006
12733 4788 3319
12734 7998 9525
12735 3189 3522
12736 1739 3869
12737 7132 5826
12738 2480 4539
12739 8653 2578
12740 6379 3416
12741 4930 7603
12742 8366 9901
12743 1065 8593
12744 1784 1888
12745 799  2355
12746 566  7770
12747 5639 9785
12748 7173 435 
12749 5182 1503
12750 6223 9511
12751 622  2357
12752 1657 6536
12753 5165 3007
12754 9368 4327
12755 3102 2558
12756 9371 9236
12757 6987 1631
12758 9823 5518
12759 9876 6271
12760 344  2543
12761 4795 752 
12762 145  8313
12763 1161 2918
12764 4027 6268
12765 532  6745
12766 1187 7806
12767 4016 7245
12768 349  8347
12769 6786 7346
12770 1235 8016
12771 2279 2267
12772 9875 3556
12773 5648 7681
12774 6413 9073
12775 4025 9691
12776 6217 651 
12777 1886 3769
12778 9143 6957
12779 4371 3764
12780 1386 6308
12781 8577 9303
12782 7685 7668
12783 6304 8229
12784 8941 2443
12785 5601 9250
12786 8699 9623
12787 3348 8240
12788 6693 1355
12789 8010 3282
12790 4923 8871
12791 5304 5367
12792 4281 5973
12793 8298 8182
12794 8079 5553
12795 853  661 
12796 3229 426 
12797 4224 7787
12798 5459 8759
12799 2108 819 
12800 5493 8988
12801 4512 5004
12802 8104 1448
12803 6802 4769
12804 1571 2198
12805 7579 5934
12806 9384 5313
12807 6736 9128
12808 9639 5892
12809 8523 5492
12810 4018 8594
12811 8546 3023
12812 9608 8379
12813 7287 1741
12814 8061 8327
12815 443  3250
12816 3007 593 
12817 1938 777 
12818 6863 4078
12819 7092 752 
12820 7627 845 
12821 1406 7457
12822 4310 9954
12823 8366 420 
12824 7877 3341
12825 5971 6104
12826 5646 8108
12827 1561 9815
12828 5832 4737
12829 4745 3036
12830 3404 3608
12831 7259 1808
12832 2588 1825
12833 6267 1214
12834 2472 2107
12835 9540 9533
12836 9358 9564
12837 404  4663
12838 4855 9669
12839 1262 1669
12840 7808 4845
12841 4569 7244
12842 3388 5608
12843 2370 1133
12844 3681 3143
12845 7315 1236
12846 3517 4945
12847 3888 4683
12848 8739 8192
12849 4875 6856
12850 6604 5305
12851 7112 8479
12852 5965 3867
12853 6283 4564
12854 7371 4974
12855 651  4944
12856 2293 3225
12857 1627 8597
12858 9234 1637
12859 4122 1884
12860 150  4691
12861 7209 2584
12862 2524 4295
12863 9825 6521
12864 2605 355 
12865 8984 603 
12866 1373 2070
12867 3993 4032
12868 7149 8756
12869 6819 1690
12870 203  4076
12871 6680 7763
12872 4634 8500
12873 1937 7413
12874 9657 4014
12875 9740 5067
12876 7254 925 
12877 7296 9310
12878 4536 5247
12879 5626 4148
12880 6044 4060
12881 3495 6425
12882 3731 2095
12883 8349 7970
12884 7702 2632
12885 7538 4958
12886 6810 2828
12887 9849 7068
12888 1250 1619
12889 7020 8686
12890 1514 5297
12891 7767 7190
12892 6785 6803
12893 921  5262
12894 227  4678
12895 1300 8083
12896 3169 1378
12897 264  3191
12898 8142 1508
12899 5015 5641
12900 4946 4218
12901 3209 4759
12902 475  7390
12903 6241 3068
12904 999  5846
12905 4488 101 
12906 5275 8125
12907 3583 776 
12908 7904 2484
12909 4147 5873
12910 6904 6127
12911 7553 8207
12912 1575 1003
12913 5734 9521
12914 2325 2613
12915 85   157 
12916 4106 8782
12917 1800 8989
12918 9160 6162
12919 7454 5375
12920 9759 9598
12921 7112 4825
12922 4243 2844
12923 3077 4204
12924 1658 2857
12925 342  8285
12926 6741 9931
12927 4927 5855
12928 4328 3407
12929 3000 2398
12930 6612 7551
12931 4881 344 
12932 4652 9750
12933 2635 7978
12934 1068 4429
12935 4431 6751
12936 1354 6878
12937 8619 4164
12938 1351 4762
12939 1986 3839
12940 7184 3196
12941 104  3155
12942 615  3487
12943 4742 7212
12944 6747 2140
12945 6390 8759
12946 3079 769 
12947 7944 8234
12948 7598 8559
12949 4200 9722
12950 199  3502
12951 3472 6953
12952 845  8934
12953 1548 946 
12954 3558 6725
12955 8094 3885
12956 1028 8153
12957 5296 3628
12958 363  5468
12959 8584 8446
12960 1802 150 
12961 2909 9535
12962 3727 2120
12963 7466 4957
12964 8199 2070
12965 9212 9068
12966 226  1001
12967 9330 5058
12968 6234 4355
12969 5125 7382
12970 6922 130 
12971 6895 4667
12972 6788 1775
12973 201  2675
12974 6002 9377
12975 5824 9275
12976 718  4174
12977 1155 186 
12978 3014 2682
12979 5663 4678
12980 3613 9024
12981 86   7748
12982 6052 4993
12983 6863 3537
12984 2160 9094
12985 4839 4909
12986 8795 3245
12987 2146 1977
12988 5640 1478
12989 6134 7777
12990 3448 2891
12991 6006 1571
12992 840  3865
12993 4228 7048
12994 4015 8867
12995 582  8042
12996 617  9438
12997 6034 7721
12998 4539 7906
12999 5485 4270
13000 4523 7682
13001 7148 6681
13002 6203 5453
13003 1234 2867
13004 504  9783
13005 4140 3037
13006 6116 5436
13007 9992 5312
13008 4856 1071
13009 858  9983
13010 1277 9050
13011 9327 2960
13012 1134 9021
13013 4540 6181
13014 5050 5079
13015 7103 4645
13016 8213 5317
13017 5498 8305
13018 4059 2760
13019 1312 4894
13020 5749 1165
13021 3848 8876
13022 2641 9039
13023 9413 5673
13024 8361 928 
13025 4141 6170
13026 9135 3936
13027 5783 4354
13028 1938 5319
13029 5374 1980
13030 1623 3630
13031 7311 7016
13032 3554 1425
13033 981  3001
13034 485  6922
13035 4920 2834
13036 3717 1266
13037 1311 4622
13038 4982 6607
13039 4083 6799
13040 4781 6613
13041 8221 4208
13042 7867 2176
13043 1625 413 
13044 3702 6402
13045 106  2417
13046 1041 2528
13047 1362 368 
13048 5818 3435
13049 7018 7205
13050 2932 3640
13051 6771 871 
13052 5426 6951
13053 4780 5   
13054 2425 8374
13055 1628 8390
13056 8701 4752
13057 29   5331
13058 8872 9643
13059 356  5007
13060 85   580 
13061 6461 9560
13062 5021 15  
13063 2551 7428
13064 7188 4759
13065 4979 3773
13066 9061 6905
13067 349  1164
13068 7714 1519
13069 970  6528
13070 3248 2022
13071 3632 4101
13072 5991 5857
13073 8300 4288
13074 3951 8441
13075 9740 6405
13076 1016 4494
13077 3888 6714
13078 8998 4175
13079 4959 10  
13080 834  9834
13081 7701 8197
13082 4142 8660
13083 9364 4868
13084 8095 454 
13085 1141 3369
13086 2544 4251
13087 2564 3532
13088 8158 4721
13089 8977 1594
13090 1301 9670
13091 57   9899
13092 4348 3876
13093 6907 5262
13094 6774 8367
13095 7151 5468
13096 7625 7184
13097 5710 2703
13098 8293 6524
13099 2699 6547
13100 5157 7550
13101 9695 6044
13102 3571 156 
13103 673  6103
13104 932  392 
13105 7617 325 
13106 3145 5732
13107 4950 1023
13108 6653 8592
13109 9386 268 
13110 3014 8315
13111 521  4102
13112 5250 6824
13113 3634 2670
13114 2725 306 
13115 426  3797
13116 9888 2640
13117 4352 7620
13118 2008 7946
13119 967  2914
13120 1016 3933
13121 7037 4042
13122 9359 6298
13123 2107 3197
13124 9603 5510
13125 1570 7522
13126 3018 960 
13127 2018 7569
13128 8966 3950
13129 6368 7381
13130 555  2296
13131 3443 9480
13132 6089 8539
13133 2235 180 
13134 6856 2986
13135 5171 4741
13136 157  3363
13137 2551 3308
13138 6490 2739
13139 5067 4236
13140 4231 8680
13141 6378 2469
13142 8492 1248
13143 2922 6570
13144 8031 9804
13145 1862 7195
13146 779  8101
13147 6276 100 
13148 4801 8019
13149 3747 1641
13150 6477 8105
13151 4647 6571
13152 761  6775
13153 975  5627
13154 6644 9516
13155 8266 2342
13156 5717 2923
13157 7381 9839
13158 6422 279 
13159 1334 1649
13160 5334 7088
13161 6788 1511
13162 8246 8457
13163 7204 7543
13164 6535 6026
13165 3809 6204
13166 1690 8597
13167 1537 3864
13168 6239 4136
13169 4781 6787
13170 8174 6526
13171 6042 2462
13172 9792 394 
13173 8933 4032
13174 4691 1843
13175 5500 9916
13176 9432 9775
13177 4678 6754
13178 7122 8892
13179 8607 4136
13180 1020 3568
13181 4434 474 
13182 3101 5102
13183 8502 8032
13184 2823 960 
13185 8386 1685
13186 2122 9170
13187 4415 6587
13188 4675 7314
13189 3000 9944
13190 5622 7015
13191 6106 2224
13192 2821 5096
13193 3628 5184
13194 5325 2681
13195 7277 4635
13196 4680 6750
13197 9692 3073
13198 4332 2334
13199 8300 4949
13200 6794 1758
13201 4103 1668
13202 4213 4586
13203 2991 7431
13204 2816 1753
13205 1070 7321
13206 4709 307 
13207 1639 5949
13208 1457 5317
13209 5984 2938
13210 7953 7068
13211 4309 1890
13212 2538 975 
13213 5771 352 
13214 675  6640
13215 7694 2608
13216 2810 5690
13217 2835 5634
13218 6382 8769
13219 1846 263 
13220 8021 1867
13221 6676 8136
13222 9219 8014
13223 2962 7895
13224 5765 1636
13225 3298 6131
13226 9211 6203
13227 2274 8190
13228 5751 6959
13229 3300 4344
13230 5734 9583
13231 3997 583 
13232 6256 643 
13233 3884 3475
13234 431  9116
13235 3266 8022
13236 1413 9760
13237 7511 5656
13238 7414 5016
13239 9104 7811
13240 2349 8156
13241 388  6764
13242 7551 7097
13243 9918 8452
13244 4728 4659
13245 470  6468
13246 9562 144 
13247 4165 7388
13248 4832 2856
13249 1254 8872
13250 5113 2865
13251 4761 2085
13252 434  3352
13253 748  463 
13254 9691 4274
13255 3303 2983
13256 6582 8453
13257 2219 5216
13258 5213 8848
13259 780  9474
13260 3442 1984
13261 6536 3757
13262 7811 2764
13263 6583 3452
13264 462  5240
13265 4086 6821
13266 4285 5750
13267 9111 7212
13268 7568 9454
13269 3187 320 
13270 71   7357
13271 2000 5707
13272 2400 3738
13273 7081 52  
13274 444  701 
13275 740  4603
13276 3561 5596
13277 429  4871
13278 4364 4456
13279 4329 5229
13280 5723 8314
13281 5912 1894
13282 6652 4277
13283 9836 9865
13284 833  4058
13285 9559 8629
13286 1949 6679
13287 1462 5059
13288 2347 1066
13289 5687 2321
13290 1171 229 
13291 1052 4424
13292 5780 1532
13293 4051 6071
13294 8491 9936
13295 9462 8940
13296 9396 5794
13297 7763 113 
13298 3933 7617
13299 2844 4513
13300 4121 1684
13301 8953 5951
13302 7564 621 
13303 4115 2586
13304 9406 7113
13305 8647 18  
13306 116  2507
13307 3548 7361
13308 1496 2955
13309 1462 3003
13310 2908 8265
13311 2679 3841
13312 7962 5397
13313 3961 555 
13314 8373 9077
13315 961  5786
13316 180  5826
13317 3137 7594
13318 6339 2788
13319 5034 2335
13320 3388 9744
13321 3069 4223
13322 5538 875 
13323 7374 8998
13324 7662 2171
13325 9671 5395
13326 6326 4220
13327 4093 3825
13328 631  1822
13329 5926 6024
13330 6532 8210
13331 8142 6823
13332 5302 1742
13333 4265 6052
13334 4892 4890
13335 83   3893
13336 8463 7675
13337 6    3945
13338 3343 3111
13339 6842 528 
13340 6592 4456
13341 5858 996 
13342 4425 5640
13343 6862 8973
13344 5926 5716
13345 7012 1495
13346 5981 5015
13347 209  9144
13348 8676 9017
13349 125  6917
13350 9332 1755
13351 1011 8405
13352 6142 4762
13353 2547 5468
13354 4557 1177
13355 9562 5244
13356 9861 4538
13357 6344 1874
13358 4996 6304
13359 325  7497
13360 8772 7017
13361 8400 4   
13362 4450 1569
13363 7376 1939
13364 7214 9846
13365 2654 1505
13366 5325 1071
13367 373  8002
13368 9211 9485
13369 4065 9970
13370 9076 1968
13371 2434 9537
13372 3748 8560
13373 145  2079
13374 5026 9142
13375 8840 9576
13376 9184 9399
13377 8034 8698
13378 6673 9957
13379 5754 448 
13380 1358 6471
13381 9434 2172
13382 9280 8203
13383 9973 7610
13384 990  3598
13385 8128 8182
13386 6425 8235
13387 1438 3157
13388 2109 7864
13389 8003 8428
13390 2810 8122
13391 1728 391 
13392 6764 2495
13393 7278 5953
13394 4530 4970
13395 1347 8749
13396 9684 6881
13397 7510 7047
13398 9691 279 
13399 4525 3386
13400 1074 9947
13401 3821 9082
13402 6448 3457
13403 1757 4111
13404 3908 1121
13405 9456 5031
13406 3979 1302
13407 4141 1403
13408 9888 3335
13409 5569 3975
13410 3501 3031
13411 3582 46  
13412 1577 9365
13413 484  9599
13414 7460 5342
13415 4007 3342
13416 5392 9605
13417 1823 868 
13418 9957 2385
13419 9040 830 
13420 3279 3548
13421 6201 5280
13422 2746 414 
13423 9751 7835
13424 6406 4346
13425 563  8530
13426 8115 3123
13427 1019 3528
13428 5799 5558
13429 2916 6644
13430 9754 4955
13431 6777 9252
13432 8343 5245
13433 7262 3230
13434 396  2857
13435 4585 2977
13436 8459 2185
13437 6027 1953
13438 3879 3813
13439 9327 9533
13440 6097 6672
13441 2432 2507
13442 5791 130 
13443 7035 7647
13444 1270 9953
13445 8926 4698
13446 3910 5650
13447 8730 8161
13448 7881 3604
13449 4546 2625
13450 8615 7370
13451 3094 8316
13452 4899 6561
13453 18   2441
13454 706  6927
13455 9115 8034
13456 1338 3123
13457 7031 3378
13458 2921 4891
13459 6147 725 
13460 9959 4868
13461 1070 4225
13462 237  8157
13463 8997 4297
13464 4984 2493
13465 4586 5393
13466 7299 638 
13467 4328 3209
13468 3385 6381
13469 3908 6178
13470 8225 1792
13471 9735 136 
13472 9093 6657
13473 4268 5015
13474 8343 5938
13475 6681 4682
13476 7292 5361
13477 2327 3519
13478 9897 6990
13479 9946 93  
13480 3928 4805
13481 5274 9186
13482 3650 855 
13483 9089 4159
13484 9123 2863
13485 7014 8080
13486 7340 1480
13487 5503 9419
13488 4560 8887
13489 3927 8521
13490 3125 2462
13491 7657 8902
13492 3334 8293
13493 9056 315 
13494 3267 729 
13495 7150 3178
13496 7326 4122
13497 9373 6207
13498 8544 4010
13499 6853 5313
13500 3053 6804
13501 7453 1067
13502 7763 7096
13503 5078 7204
13504 7529 8464
13505 9629 2863
13506 6815 5290
13507 7579 9178
13508 6851 2882
13509 7892 7351
13510 5630 5556
13511 1375 1818
13512 2069 4773
13513 3695 8146
13514 5239 172 
13515 7474 1940
13516 1656 383 
13517 4416 156 
13518 8990 5766
13519 1767 1193
13520 739  2469
13521 441  9099
13522 1595 4375
13523 6273 89  
13524 186  8054
13525 5401 4411
13526 7554 2959
13527 851  8151
13528 1171 8712
13529 6012 6174
13530 1717 8695
13531 7323 1084
13532 2231 4903
13533 72   7595
13534 4115 4337
13535 2099 5969
13536 3343 9052
13537 1085 5698
13538 9973 8753
13539 2447 4972
13540 3703 5011
13541 3774 6223
13542 6081 4466
13543 9381 7193
13544 321  6473
13545 5639 8554
13546 2948 6241
13547 1493 2258
13548 190  2605
13549 26   5209
13550 5790 1116
13551 4285 8620
13552 3744 9162
13553 296  571 
13554 2019 6040
13555 9245 5373
13556 2112 2287
13557 3783 667 
13558 2434 1397
13559 1487 367 
13560 2216 3289
13561 9296 8541
13562 6235 3949
13563 5332 3154
13564 1503 7102
13565 3999 8117
13566 4778 2691
13567 5682 3669
13568 8078 5020
13569 9883 874 
13570 4480 3548
13571 1761 6265
13572 5186 5534
13573 6420 350 
13574 9010 2345
13575 6865 6481
13576 8317 5782
13577 4413 3660
13578 5406 3024
13579 5103 841 
13580 3018 672 
13581 4997 2012
13582 8875 9412
13583 4868 7107
13584 6252 6901
13585 2733 1005
13586 1558 3429
13587 9916 9377
13588 9594 2186
13589 30   4761
13590 5325 8906
13591 7576 7007
13592 5217 3799
13593 5027 8734
13594 7936 2379
13595 679  7594
13596 2867 2829
13597 2344 9839
13598 4591 2327
13599 8962 9399
13600 6459 1733
13601 5510 716 
13602 394  3901
13603 4595 1601
13604 4430 6634
13605 1354 4715
13606 7243 5090
13607 3448 5925
13608 4807 4281
13609 9638 4369
13610 5896 9359
13611 5474 1370
13612 6674 9807
13613 2525 4534
13614 8985 7981
13615 479  5645
13616 7739 9700
13617 509  2053
13618 1352 7258
13619 6994 8259
13620 3383 1247
13621 2850 3615
13622 5588 8116
13623 3099 9890
13624 3930 7341
13625 3726 1974
13626 6122 6335
13627 1121 6581
13628 3847 4245
13629 8725 3392
13630 9434 1306
13631 4100 8740
13632 8834 992 
13633 2906 6053
13634 961  5416
13635 2503 6405
13636 7526 4983
13637 3758 4002
13638 4810 9866
13639 1673 3112
13640 6354 5262
13641 5610 3375
13642 5468 2700
13643 8592 9714
13644 8019 2494
13645 2742 7299
13646 8252 7824
13647 5198 4461
13648 1464 6212
13649 4986 4906
13650 5771 2040
13651 6305 9410
13652 3994 7064
13653 6362 244 
13654 7914 8071
13655 5143 9181
13656 5390 9114
13657 3083 52  
13658 3134 3949
13659 5599 9244
13660 7233 2285
13661 6972 8328
13662 6624 1329
13663 8496 7687
13664 129  9809
13665 8763 3300
13666 4621 5704
13667 8785 5745
13668 4303 5869
13669 725  1527
13670 6458 1270
13671 7682 9834
13672 2769 9270
13673 5631 1716
13674 1160 2630
13675 5419 1804
13676 239  7436
13677 5857 3788
13678 9182 3651
13679 5061 1831
13680 4372 3424
13681 6462 3292
13682 3913 4240
13683 5791 7097
13684 8066 9861
13685 2859 5008
13686 8061 4093
13687 6480 6299
13688 5258 8506
13689 2617 3362
13690 9855 5123
13691 7345 5230
13692 2538 4969
13693 8423 4323
13694 4898 1638
13695 7650 979 
13696 7161 1670
13697 9344 7348
13698 6992 8264
13699 5405 3167
13700 5608 3157
13701 1059 4134
13702 7125 1434
13703 9412 3461
13704 8173 7652
13705 4979 9250
13706 6947 7015
13707 9970 7371
13708 1346 5503
13709 3617 8558
13710 4970 5466
13711 2607 5658
13712 5754 406 
13713 3725 5338
13714 1529 5005
13715 8374 745 
13716 4486 450 
13717 8543 3126
13718 8087 4281
13719 8872 6382
13720 2709 8276
13721 803  8182
13722 8604 3221
13723 9243 4682
13724 7484 2861
13725 1097 5426
13726 3163 2601
13727 6734 1096
13728 2654 5613
13729 8951 1460
13730 8598 178 
13731 8720 500 
13732 1768 9402
13733 2274 8762
13734 9183 1021
13735 5938 1540
13736 5590 1011
13737 5759 4340
13738 3448 4566
13739 4301 3754
13740 3392 9975
13741 3322 1947
13742 6776 6619
13743 1588 8011
13744 8603 4007
13745 8048 9883
13746 5001 177 
13747 9023 2275
13748 8761 5603
13749 1611 9799
13750 3680 6299
13751 9969 2695
13752 3310 4290
13753 7382 5642
13754 1670 6800
13755 1332 7116
13756 9044 9525
13757 4116 3874
13758 3848 9035
13759 8013 3901
13760 6624 7727
13761 3233 6512
13762 3384 6241
13763 5531 2486
13764 5770 8329
13765 3076 3722
13766 3268 6374
13767 5094 3658
13768 2967 1176
13769 4450 5892
13770 5408 5301
13771 4496 2148
13772 2123 2165
13773 9244 2355
13774 7487 8819
13775 6959 383 
13776 2641 6657
13777 8609 7304
13778 8086 9474
13779 2390 5816
13780 6215 9613
13781 4465 2049
13782 8186 3147
13783 7421 9677
13784 5788 6489
13785 8529 1875
13786 8999 8743
13787 7824 9275
13788 9342 9413
13789 9856 2601
13790 8697 9397
13791 9341 4613
13792 5309 893 
13793 6793 1505
13794 9977 5586
13795 315  9732
13796 5232 9711
13797 3141 8130
13798 3958 9635
13799 5078 2809
13800 7099 6901
13801 9958 5441
13802 2155 451 
13803 6307 231 
13804 7949 7151
13805 1087 2842
13806 1754 8482
13807 7770 8958
13808 6068 6630
13809 2447 8338
13810 9760 7140
13811 9120 5192
13812 3188 7249
13813 1037 3050
13814 2105 9458
13815 1612 3642
13816 2159 5382
13817 3575 2560
13818 8461 2270
13819 4337 3515
13820 4943 6737
13821 761  287 
13822 5961 5013
13823 7887 7423
13824 5852 7158
13825 6950 2141
13826 7671 9474
13827 2255 9572
13828 5038 2056
13829 6842 6936
13830 3039 6151
13831 8001 6135
13832 4626 2693
13833 2718 9277
13834 6820 4131
13835 7550 1092
13836 9617 2491
13837 7433 5511
13838 2496 1728
13839 7553 5783
13840 8507 6994
13841 9244 4969
13842 6184 8497
13843 9567 3828
13844 125  6514
13845 4943 4212
13846 1165 506 
13847 6140 286 
13848 2215 7194
13849 332  8729
13850 8095 5406
13851 3061 9612
13852 1726 7175
13853 6502 2021
13854 518  14  
13855 7593 794 
13856 7052 4001
13857 6539 9949
13858 5293 6461
13859 1637 3861
13860 7062 166 
13861 6466 4121
13862 9637 1047
13863 2649 1905
13864 2999 8706
13865 5094 7870
13866 3907 9555
13867 1474 2937
13868 7228 5043
13869 1498 2523
13870 7202 5611
13871 3282 2269
13872 744  7993
13873 6260 1306
13874 7444 5498
13875 1679 7437
13876 8225 6222
13877 3848 3143
13878 7689 6598
13879 3404 5923
13880 8213 890 
13881 4889 6097
13882 3992 341 
13883 8901 5610
13884 3388 2697
13885 8226 9536
13886 2125 2111
13887 2492 1286
13888 8158 4123
13889 5601 1813
13890 7147 703 
13891 3053 7163
13892 4871 4665
13893 9603 3336
13894 2015 8611
13895 2462 6465
13896 5691 5326
13897 794  5821
13898 5282 6366
13899 6795 1052
13900 9646 7939
13901 3008 8189
13902 5321 7385
13903 5080 9084
13904 498  5210
13905 6227 440 
13906 6672 347 
13907 1910 8882
13908 1585 9475
13909 357  5024
13910 4443 8381
13911 5603 8965
13912 7622 2372
13913 5049 2283
13914 2257 5865
13915 475  754 
13916 1508 196 
13917 9274 2056
13918 6630 6541
13919 2826 6039
13920 4973 2485
13921 712  3938
13922 7457 3436
13923 7101 2420
13924 1114 3414
13925 552  9194
13926 7286 1427
13927 6854 2132
13928 6464 4107
13929 9471 9081
13930 6090 8360
13931 2868 9173
13932 9001 4195
13933 4160 6418
13934 7558 4084
13935 6619 2763
13936 9455 4754
13937 8146 7617
13938 10   6065
13939 7460 5229
13940 4769 3902
13941 8964 1874
13942 6864 9628
13943 564  6698
13944 2865 7926
13945 8485 5562
13946 3853 7059
13947 8307 4896
13948 9807 1129
13949 6085 9473
13950 4962 696 
13951 9159 29  
13952 4997 2704
13953 482  8425
13954 4272 123 
13955 513  5158
13956 5318 2296
13957 2742 735 
13958 267  499 
13959 9338 2478
13960 5582 7397
13961 5299 2269
13962 7005 744 
13963 7545 6386
13964 1642 6707
13965 1597 2528
13966 2849 3635
13967 7482 9835
13968 9450 8124
13969 374  8948
13970 1728 4939
13971 7028 3973
13972 616  6564
13973 5764 5681
13974 4576 781 
13975 6091 829 
13976 8463 3912
13977 1625 2711
13978 2227 836 
13979 655  6662
13980 842  8782
13981 5395 6913
13982 776  4600
13983 641  8310
13984 2499 7924
13985 6584 581 
13986 5617 3930
13987 9330 5323
13988 2102 5918
13989 6779 3451
13990 4396 711 
13991 2949 1080
13992 4716 504 
13993 7234 2725
13994 9600 8803
13995 7589 826 
13996 2131 6506
13997 7677 2693
13998 1970 7642
13999 6585 2285
14000 2326 2645
14001 385  4598
14002 197  9957
14003 6518 8685
14004 2851 4298
14005 4657 1775
14006 8796 8886
14007 2230 7955
14008 8134 4770
14009 2133 7057
14010 139  4849
14011 408  1906
14012 7461 2949
14013 4695 2673
14014 9190 1866
14015 8169 1590
14016 6449 8310
14017 5115 670 
14018 1155 4378
14019 8735 1930
14020 3993 8768
14021 8690 6726
14022 7511 3093
14023 6430 6512
14024 1194 1526
14025 807  9064
14026 722  2763
14027 9325 7851
14028 6810 7855
14029 1187 8460
14030 4429 2840
14031 5819 2739
14032 3548 3302
14033 9144 8703
14034 474  1871
14035 8122 3444
14036 10000 5218
14037 4147 5733
14038 2727 804 
14039 2252 9215
14040 3454 9872
14041 4886 608 
14042 7466 4962
14043 7183 1302
14044 2824 7096
14045 3217 260 
14046 6019 1285
14047 759  5322
14048 8017 6203
14049 3947 941 
14050 9226 4063
14051 389  6462
14052 4363 2237
14053 5430 4009
14054 918  306 
14055 4513 2312
14056 5877 9477
14057 190  5057
14058 9961 9275
14059 7187 1404
14060 4045 1914
14061 8687 6560
14062 1344 1893
14063 3920 9383
14064 1674 4745
14065 8095 8252
14066 810  780 
14067 8923 4486
14068 9054 5023
14069 8207 1522
14070 1651 9888
14071 7243 1939
14072 9060 9661
14073 1697 1877
14074 9717 1922
14075 574  3435
14076 5559 2580
14077 9749 6282
14078 4677 3066
14079 4142 2703
14080 3683 1597
14081 2689 3371
14082 9845 1746
14083 659  747 
14084 8312 7879
14085 4784 5059
14086 1345 1245
14087 7786 7773
14088 4049 3377
14089 7042 4646
14090 9073 3838
14091 2351 8394
14092 4491 6237
14093 6661 5045
14094 2758 3853
14095 5582 4118
14096 2201 5311
14097 797  7138
14098 6488 7732
14099 4071 8942
14100 3139 1078
14101 6200 7727
14102 9848 6670
14103 5203 3202
14104 6392 1784
14105 2346 8311
14106 4557 5940
14107 5384 7536
14108 5121 4280
14109 5854 8122
14110 4949 695 
14111 9545 971 
14112 4974 9487
14113 5418 2349
14114 6361 9817
14115 484  5550
14116 1158 1024
14117 5767 6590
14118 2592 8190
14119 6533 8535
14120 3856 8240
14121 2257 7518
14122 7229 2903
14123 7599 5192
14124 7806 4432
14125 4761 5544
14126 3473 8443
14127 6303 3310
14128 4598 3194
14129 9701 8621
14130 4513 1729
14131 1988 8256
14132 9992 4888
14133 6461 6655
14134 9018 1763
14135 3154 4125
14136 758  9138
14137 8035 7078
14138 3955 1677
14139 321  7640
14140 3632 3843
14141 2260 1958
14142 4595 4119
14143 983  420 
14144 4225 6480
14145 1631 6096
14146 999  1490
14147 1461 7857
14148 2899 9387
14149 477  9925
14150 8935 9161
14151 4082 1645
14152 7990 8696
14153 1539 2432
14154 2155 7446
14155 170  431 
14156 6393 4250
14157 8783 7559
14158 7374 2167
14159 6094 6387
14160 1023 6227
14161 5108 8404
14162 4142 6567
14163 7710 4603
14164 9296 3209
14165 5823 2188
14166 2145 1628
14167 4672 4841
14168 3750 2028
14169 8236 1111
14170 9099 7986
14171 625  5231
14172 8644 8841
14173 2486 8344
14174 9213 1469
14175 3122 8216
14176 782  4434
14177 6042 8392
14178 7698 3273
14179 6248 209 
14180 5662 4568
14181 7193 951 
14182 7412 9370
14183 2847 8198
14184 1109 6767
14185 1371 6106
14186 6667 552 
14187 8275 3089
14188 4858 8380
14189 7765 2472
14190 1155 6622
14191 776  5872
14192 855  1863
14193 4336 2599
14194 2217 967 
14195 3038 2946
14196 1060 8625
14197 9418 9298
14198 13   9446
14199 6688 5055
14200 8217 322 
14201 3372 3081
14202 1321 5273
14203 9481 5536
14204 5060 2662
14205 7057 2411
14206 4617 2295
14207 6626 8867
14208 9965 4008
14209 3868 8173
14210 3617 9098
14211 8576 9155
14212 6420 1228
14213 4390 360 
14214 3227 8367
14215 73   2775
14216 8364 4092
14217 441  8165
14218 4516 8434
14219 5002 8207
14220 3201 6150
14221 1319 4938
14222 9712 6826
14223 3849 4879
14224 5949 521 
14225 7146 3981
14226 1421 879 
14227 4083 1860
14228 4632 8367
14229 2159 7474
14230 6800 2286
14231 2240 488 
14232 3170 5563
14233 2092 2697
14234 7181 1600
14235 6480 8395
14236 2538 6937
14237 9652 6653
14238 4956 9071
14239 330  7732
14240 5546 2170
14241 2103 492 
14242 213  6636
14243 3714 7379
14244 9889 4400
14245 9067 1097
14246 6783 6869
14247 8644 5737
14248 9020 1456
14249 669  7902
14250 3444 2593
14251 7553 5009
14252 7237 4320
14253 1114 6698
14254 782  5698
14255 9596 9049
14256 5724 8081
14257 9710 5810
14258 7386 5580
14259 6475 3711
14260 8610 1185
14261 192  7440
14262 4014 2901
14263 2424 6924
14264 4801 2620
14265 5867 8141
14266 6087 6861
14267 4173 6078
14268 8756 3504
14269 7765 9889
14270 7380 318 
14271 4825 4397
14272 6483 108 
14273 6628 7235
14274 5691 1566
14275 1743 6372
14276 8221 6480
14277 9719 850 
14278 3833 7058
14279 2936 2884
14280 9017 4090
14281 4367 8156
14282 3103 4215
14283 5910 4646
14284 4615 8348
14285 5111 9799
14286 3083 9613
14287 2818 8776
14288 401  8171
14289 1834 8972
14290 4512 3239
14291 1591 4994
14292 5527 5282
14293 2400 2800
14294 5928 6012
14295 422  7290
14296 8548 3742
14297 7580 2712
14298 3858 5258
14299 6709 7630
14300 4263 1715
14301 6521 6050
14302 2758 2121
14303 9951 1256
14304 4159 7559
14305 3225 5260
14306 7864 7904
14307 7898 7788
14308 7367 3584
14309 6218 8504
14310 7457 6099
14311 3144 9693
14312 8801 3014
14313 3075 528 
14314 992  950 
14315 3318 4246
14316 8759 7214
14317 6423 4865
14318 7537 5488
14319 6061 1834
14320 1850 6836
14321 9614 219 
14322 7548 7072
14323 2779 7836
14324 5350 3881
14325 4335 8621
14326 7176 7544
14327 8921 6213
14328 746  7314
14329 2006 841 
14330 9978 7754
14331 6690 1080
14332 7668 2459
14333 834  1320
14334 8037 5863
14335 2201 6969
14336 7406 955 
14337 345  6925
14338 7432 1608
14339 5576 2556
14340 1284 5633
14341 829  904 
14342 8061 7145
14343 5645 3301
14344 395  8663
14345 5009 2167
14346 6535 5910
14347 5030 6027
14348 2939 9939
14349 4064 6465
14350 8676 19  
14351 5888 5214
14352 555  7404
14353 6011 6589
14354 6111 5019
14355 4808 2803
14356 6088 4432
14357 3148 1160
14358 6927 9591
14359 1604 3695
14360 1280 5778
14361 4503 5187
14362 4550 2135
14363 5284 1944
14364 7975 9462
14365 612  8363
14366 5412 1661
14367 8757 4899
14368 4385 8119
14369 9665 7280
14370 7473 2495
14371 1111 8012
14372 1550 7528
14373 6341 1546
14374 9175 5835
14375 7446 4196
14376 8329 3595
14377 9868 6417
14378 6686 9343
14379 6649 8805
14380 9728 7974
14381 9396 8412
14382 3368 8349
14383 326  5656
14384 1762 9369
14385 505  8783
14386 1893 1922
14387 5401 6006
14388 483  5614
14389 2938 6971
14390 6664 802 
14391 865  6971
14392 5209 3246
14393 7862 1269
14394 2280 7723
14395 5456 40  
14396 1425 5462
14397 971  2648
14398 9927 1227
14399 2500 8117
14400 7593 7834
14401 631  5427
14402 2423 2620
14403 2452 9282
14404 2055 1586
14405 7737 3015
14406 8811 4108
14407 3840 8898
14408 2308 2570
14409 1587 1945
14410 1622 2293
14411 1994 4677
14412 8065 2331
14413 5534 7990
14414 8296 2100
14415 939  1147
14416 2572 496 
14417 3192 115 
14418 3957 6223
14419 3513 6662
14420 5501 7991
14421 8699 939 
14422 936  9703
14423 9551 2705
14424 5189 1930
14425 6267 6907
14426 7821 7056
14427 2183 1604
14428 5057 8032
14429 5958 250 
14430 2395 546 
14431 839  7145
14432 9532 2693
14433 166  8676
14434 7624 9803
14435 7538 3878
14436 4326 5105
14437 2199 7832
14438 6177 1782
14439 1243 8078
14440 4197 2379
14441 1011 1690
14442 6458 1161
14443 388  5744
14444 3975 9445
14445 1074 3155
14446 2098 308 
14447 3579 5396
14448 2175 8014
14449 3294 305 
14450 8251 5445
14451 1226 6525
14452 5904 6450
14453 2588 294 
14454 4250 4206
14455 8485 9485
14456 3125 2910
14457 4591 4198
14458 1693 5613
14459 4420 5953
14460 4478 1495
14461 2416 7835
14462 8747 9786
14463 4344 9506
14464 1873 1746
14465 5877 727 
14466 8895 7441
14467 4917 6558
14468 5501 1251
14469 3954 5119
14470 1376 7465
14471 5182 378 
14472 2414 6727
14473 2563 5013
14474 6951 8176
14475 5591 5935
14476 7491 9619
14477 2469 7768
14478 5214 5501
14479 9198 9147
14480 3976 1177
14481 1197 6465
14482 229  4752
14483 3397 1617
14484 5873 5793
14485 7162 261 
14486 8848 7220
14487 6343 86  
14488 8539 2787
14489 77   1813
14490 6913 5772
14491 4387 6836
14492 5163 8535
14493 2867 3136
14494 1725 793 
14495 370  2091
14496 6854 6236
14497 4045 4036
14498 2394 7049
14499 8287 4076
14500 7475 7471
14501 5292 7231
14502 7061 9727
14503 74   7094
14504 4312 6122
14505 4147 531 
14506 9923 1468
14507 4830 5744
14508 5036 6347
14509 4822 9021
14510 7277 3466
14511 5106 9652
14512 5882 3960
14513 7205 6441
14514 6572 5287
14515 9687 9641
14516 4193 8043
14517 1513 7239
14518 2514 7341
14519 4703 9702
14520 8510 3061
14521 158  6359
14522 6715 3859
14523 4119 397 
14524 3869 7920
14525 1772 1377
14526 2815 8837
14527 7561 4560
14528 3799 1248
14529 1300 4360
14530 6357 4140
14531 316  188 
14532 3685 9749
14533 4475 962 
14534 5175 1415
14535 206  6858
14536 2722 5150
14537 4949 514 
14538 3184 672 
14539 4533 5319
14540 3815 6313
14541 2991 4128
14542 6838 1317
14543 6437 2292
14544 1599 2386
14545 9011 2801
14546 1858 1923
14547 1076 7857
14548 2305 4606
14549 3066 6872
14550 5209 9509
14551 4217 2636
14552 6327 5777
14553 294  5099
14554 7584 6349
14555 4428 4741
14556 1633 7768
14557 7092 2499
14558 5267 1757
14559 3156 3107
14560 6170 67  
14561 1116 4833
14562 8373 1765
14563 2031 5348
14564 9182 2489
14565 7988 2508
14566 8916 4569
14567 7349 6678
14568 807  2317
14569 4675 2212
14570 4059 1373
14571 7416 372 
14572 7289 234 
14573 4235 9449
14574 9918 5526
14575 5148 2356
14576 7703 9881
14577 1184 8538
14578 2315 158 
14579 4878 5272
14580 6786 7803
14581 7927 4370
14582 4606 5441
14583 3241 9731
14584 5574 5343
14585 4521 9195
14586 1719 2677
14587 2751 910 
14588 9080 2715
14589 1722 6370
14590 8535 8908
14591 2523 3156
14592 5382 9223
14593 9584 2218
14594 6568 2977
14595 2903 4441
14596 4643 899 
14597 5760 4558
14598 4730 875 
14599 4983 3227
14600 2983 4470
14601 364  6741
14602 900  1041
14603 3488 8637
14604 4542 3917
14605 2983 1441
14606 3238 3814
14607 3835 9587
14608 9882 6684
14609 8649 956 
14610 2873 4186
14611 3742 3914
14612 8402 7244
14613 7468 528 
14614 6837 4199
14615 7682 378 
14616 983  3881
14617 5928 9340
14618 4666 9135
14619 4403 6719
14620 2830 8971
14621 9456 8592
14622 8222 271 
14623 4172 5901
14624 1874 517 
14625 6399 8783
14626 8988 7139
14627 2368 6384
14628 7117 3529
14629 9291 9746
14630 3412 2167
14631 1238 5082
14632 8619 4950
14633 6203 4326
14634 6369 4306
14635 8613 148 
14636 3143 6007
14637 9451 3782
14638 457  27  
14639 223  6469
14640 6226 9680
14641 3422 5738
14642 372  5158
14643 4392 3300
14644 8761 7684
14645 2363 2598
14646 2312 8147
14647 9387 1654
14648 7657 4571
14649 1526 8439
14650 8414 5334
14651 3928 4277
14652 3533 4053
14653 1519 2490
14654 5668 8998
14655 4896 751 
14656 7238 5962
14657 3327 549 
14658 4338 3674
14659 6758 7599
14660 6214 5316
14661 2057 4494
14662 7134 5621
14663 8990 144 
14664 2665 4146
14665 6779 1890
14666 1500 8083
14667 2904 1790
14668 3711 7982
14669 6304 7495
14670 5318 574 
14671 1230 667 
14672 7780 4436
14673 4192 1180
14674 5857 8908
14675 7396 741 
14676 1843 8336
14677 7977 5357
14678 7231 922 
14679 172  8863
14680 2805 5546
14681 8855 9028
14682 4474 591 
14683 6519 3589
14684 5213 7677
14685 7965 5662
14686 4220 8591
14687 2515 7830
14688 4118 351 
14689 9184 3130
14690 7934 2172
14691 2620 7407
14692 6091 3701
14693 2516 1360
14694 7388 7327
14695 2134 5307
14696 2595 6583
14697 5222 5215
14698 2704 2965
14699 5157 7722
14700 498  5420
14701 5180 4765
14702 260  4133
14703 3728 9928
14704 7574 2362
14705 6228 6013
14706 2794 8856
14707 7066 9636
14708 8405 3184
14709 5110 4269
14710 4060 4502
14711 7180 1783
14712 6241 9537
14713 7305 3246
14714 3842 2972
14715 360  7703
14716 7388 4489
14717 9046 3241
14718 3802 1700
14719 5025 3559
14720 7390 5286
14721 4904 2904
14722 633  4996
14723 1035 9123
14724 4205 7404
14725 5871 2070
14726 5862 9030
14727 6975 393 
14728 6460 5782
14729 6520 6265
14730 4255 1773
14731 3115 3890
14732 8281 1801
14733 7975 7881
14734 4358 9673
14735 1136 4895
14736 8091 5645
14737 7215 3804
14738 927  9974
14739 8605 6146
14740 5136 3091
14741 1725 2107
14742 4572 1768
14743 6739 3053
14744 1344 1993
14745 6719 6955
14746 8173 404 
14747 9796 7060
14748 4142 5843
14749 2930 2798
14750 8338 7546
14751 4571 5834
14752 5530 7915
14753 8787 1709
14754 4015 8182
14755 4400 2077
14756 8251 1612
14757 8234 4469
14758 2717 5250
14759 6757 2741
14760 7641 8705
14761 5065 2834
14762 185  2633
14763 8332 2626
14764 9086 2497
14765 1028 5742
14766 4084 8126
14767 8090 572 
14768 3169 3178
14769 1339 2048
14770 9963 1930
14771 7624 2337
14772 7012 8626
14773 9095 5357
14774 7213 2993
14775 6818 7719
14776 9019 315 
14777 2548 8888
14778 9254 3477
14779 287  1932
14780 4719 3997
14781 53   9803
14782 2521 4341
14783 1138 5851
14784 8846 4647
14785 1768 37  
14786 8995 3417
14787 2672 2344
14788 7111 690 
14789 721  5540
14790 3074 6045
14791 7222 5624
14792 746  6346
14793 7156 1652
14794 3251 6008
14795 5944 9506
14796 844  638 
14797 8354 1104
14798 2119 9136
14799 7533 8008
14800 3183 5134
14801 6804 750 
14802 9172 6800
14803 8335 5581
14804 3703 3824
14805 6939 5625
14806 8178 14  
14807 963  6898
14808 4531 8780
14809 8860 3283
14810 66   5063
14811 4821 1454
14812 5533 5308
14813 6826 9035
14814 7592 6591
14815 6102 7122
14816 316  8891
14817 5323 9528
14818 8254 793 
14819 4497 3269
14820 207  1236
14821 5646 2738
14822 1983 4218
14823 5200 1303
14824 7746 7178
14825 5395 5954
14826 5622 2002
14827 2857 971 
14828 4345 1748
14829 6845 1019
14830 2365 8618
14831 9742 1773
14832 97   1871
14833 8612 2541
14834 9682 9143
14835 7980 1041
14836 9485 606 
14837 7670 4931
14838 4444 9239
14839 4420 6481
14840 6196 4097
14841 5412 8632
14842 6423 3218
14843 2706 9066
14844 5012 2585
14845 3457 5305
14846 4945 7690
14847 8665 1605
14848 9064 105 
14849 3116 465 
14850 2927 8423
14851 4993 4028
14852 5526 8980
14853 6693 4014
14854 9055 5559
14855 7690 4829
14856 5151 7521
14857 7563 6788
14858 345  4181
14859 5073 2094
14860 9027 699 
14861 2173 901 
14862 2690 3195
14863 5160 3714
14864 9110 3734
14865 6721 3656
14866 1434 2385
14867 2069 5492
14868 3091 3270
14869 5904 3963
14870 6288 7855
14871 6611 4946
14872 8978 4342
14873 5160 1635
14874 2371 2042
14875 6512 1311
14876 5167 8082
14877 7964 2592
14878 2453 3953
14879 5232 9720
14880 5263 4812
14881 3663 3195
14882 2213 805 
14883 4286 2274
14884 8564 413 
14885 552  5672
14886 1570 8721
14887 1625 1053
14888 974  4702
14889 6779 9903
14890 5481 4190
14891 4117 3718
14892 8063 9150
14893 1249 7390
14894 9599 4125
14895 5839 1944
14896 4321 5315
14897 8639 1604
14898 1366 91  
14899 1693 8695
14900 7945 9124
14901 6207 5315
14902 745  1324
14903 8447 6428
14904 2695 6414
14905 4381 3923
14906 2468 6501
14907 3506 645 
14908 8210 69  
14909 4444 27  
14910 9229 2891
14911 5860 5981
14912 6154 3012
14913 7597 8877
14914 2643 5693
14915 6275 9344
14916 8386 4004
14917 8330 2696
14918 6792 5218
14919 1016 9871
14920 3189 1535
14921 1360 8570
14922 5435 2234
14923 3156 9634
14924 7092 8258
14925 7686 688 
14926 4330 1112
14927 6706 3903
14928 6116 2644
14929 8406 7134
14930 558  3388
14931 8501 8345
14932 5606 6514
14933 1739 4522
14934 3948 3860
14935 8709 3527
14936 6795 5308
14937 9945 761 
14938 8462 5266
14939 6736 7927
14940 2621 6850
14941 8700 96  
14942 1260 4732
14943 9965 1175
14944 4153 2582
14945 2123 6855
14946 8213 7804
14947 5721 198 
14948 2303 1690
14949 3731 2744
14950 59   2224
14951 1644 7594
14952 4556 1007
14953 8488 9153
14954 1536 1369
14955 5987 1992
14956 3971 2546
14957 6667 5651
14958 6366 2017
14959 4492 5409
14960 8940 7449
14961 4509 8672
14962 5254 6334
14963 3523 2440
14964 5011 1411
14965 3843 2909
14966 400  9490
14967 5049 5596
14968 2083 8133
14969 965  3696
14970 6741 8988
14971 3348 8060
14972 6162 902 
14973 7578 8049
14974 9939 4096
14975 3052 458 
14976 3625 6355
14977 6049 5433
14978 3540 3235
14979 4917 492 
14980 9396 4504
14981 4623 1994
14982 2704 9398
14983 772  4108
14984 5252 5849
14985 5050 702 
14986 6253 5939
14987 8728 1611
14988 872  8739
14989 4894 6010
14990 146  6255
14991 2017 6276
14992 4605 6454
14993 4166 601 
14994 1974 6951
14995 9906 4894
14996 9012 7962
14997 6500 1582
14998 9681 342 
14999 2038 4159
15000 3226 2284
15001 9976 7017
15002 9984 3131
15003 4102 8007
15004 8072 3319
15005 6414 709 
15006 2919 3009
15007 8716 8339
15008 2527 4125
15009 6785 7481
15010 6355 8637
15011 9426 9445
15012 128  3633
15013 1457 834 
15014 5345 3133
15015 3382 3201
15016 1277 6929
15017 6168 7645
15018 340  447 
15019 8750 4312
15020 4591 6794
15021 1859 572 
15022 3368 517 
15023 5624 810 
15024 393  6197
15025 3620 7406
15026 1817 9184
15027 4460 4254
15028 7949 6324
15029 8451 5827
15030 2566 9857
15031 2839 6991
15032 6921 2290
15033 8737 2858
15034 3939 4677
15035 4410 5429
15036 7384 2811
15037 5781 2178
15038 6737 6114
15039 9397 6623
15040 8870 9225
15041 5973 1155
15042 6922 1170
15043 2746 7691
15044 8779 5998
15045 1850 1582
15046 8320 2638
15047 807  5362
15048 1463 1326
15049 448  3216
15050 645  4495
15051 1280 1727
15052 8051 877 
15053 3121 9904
15054 5356 3497
15055 624  4593
15056 636  3792
15057 827  3962
15058 5439 5767
15059 2100 5568
15060 9773 8678
15061 6812 7937
15062 8117 7957
15063 3642 8627
15064 5256 2178
15065 9845 9056
15066 8106 6564
15067 8556 2681
15068 4716 9765
15069 9882 9191
15070 6754 2948
15071 6632 5356
15072 7313 1742
15073 7275 6727
15074 5092 4018
15075 9684 7199
15076 4814 152 
15077 3430 9634
15078 3891 1497
15079 3699 52  
15080 7455 3073
15081 7699 8466
15082 8082 1837
15083 7305 1960
15084 1680 157 
15085 9745 7231
15086 6117 5185
15087 9631 5813
15088 8773 7389
15089 7118 6269
15090 9259 5995
15091 2746 8769
15092 713  501 
15093 1008 9954
15094 5924 5205
15095 7585 3210
15096 3379 169 
15097 2300 1104
15098 4701 2807
15099 4359 816 
15100 9878 6059
15101 8227 3281
15102 5607 5879
15103 515  2038
15104 4547 6302
15105 6560 7792
15106 3578 237 
15107 4435 4361
15108 3950 5744
15109 6157 7188
15110 3305 8364
15111 5595 1434
15112 5040 6787
15113 7806 6134
15114 605  7094
15115 5673 765 
15116 5876 1436
15117 1285 2394
15118 2488 8233
15119 3622 3351
15120 3089 3543
15121 4973 8522
15122 9058 4838
15123 9468 3981
15124 581  7368
15125 7168 2622
15126 5460 8433
15127 162  292 
15128 7937 6229
15129 4185 1726
15130 2084 2789
15131 2134 172 
15132 723  5614
15133 3643 4973
15134 2840 6927
15135 5693 3137
15136 4713 6492
15137 9073 1590
15138 6816 9088
15139 5943 113 
15140 8293 600 
15141 4291 7624
15142 3553 1148
15143 5373 9187
15144 3715 2554
15145 6848 6908
15146 2632 2647
15147 8457 4649
15148 7473 7796
15149 6492 2373
15150 7517 3644
15151 6452 9497
15152 1393 2442
15153 3643 6066
15154 4254 5437
15155 2038 1262
15156 8495 4807
15157 8698 6065
15158 4975 8996
15159 9840 9166
15160 2985 3128
15161 367  8176
15162 5295 1562
15163 1853 8902
15164 9306 5755
15165 270  4804
15166 1279 6542
15167 4319 1846
15168 270  6435
15169 6829 9536
15170 2835 1523
15171 4207 4082
15172 2924 2397
15173 6786 615 
15174 4598 5560
15175 1851 3189
15176 8697 3647
15177 2490 2238
15178 1800 6512
15179 9687 2119
15180 3610 899 
15181 5800 4522
15182 2875 1798
15183 6168 4408
15184 4267 5528
15185 5305 1160
15186 5146 8915
15187 7125 6779
15188 2207 886 
15189 7655 9546
15190 3655 8918
15191 2629 3730
15192 4421 1230
15193 754  2886
15194 3893 7504
15195 222  3323
15196 7399 4771
15197 2304 4149
15198 8439 9206
15199 5499 678 
15200 3936 4497
15201 367  2955
15202 3321 9600
15203 7841 5478
15204 4976 6266
15205 6542 9646
15206 3830 9913
15207 861  2345
15208 1686 7165
15209 3044 9827
15210 4309 7481
15211 1144 325 
15212 2997 1439
15213 3958 8957
15214 8595 4749
15215 9469 3556
15216 4493 7352
15217 360  2711
15218 1403 7135
15219 7698 6071
15220 586  5508
15221 9821 1834
15222 4509 2711
15223 779  4347
15224 1297 6574
15225 4018 9688
15226 2918 511 
15227 5420 3198
15228 2090 544 
15229 3854 1204
15230 374  7541
15231 302  9706
15232 9488 9808
15233 7269 5478
15234 1368 3899
15235 1243 4173
15236 1574 7159
15237 7555 6547
15238 1941 2597
15239 2486 1857
15240 8036 4404
15241 7922 8289
15242 5585 960 
15243 9096 6090
15244 1767 6308
15245 4254 8478
15246 4277 492 
15247 7654 9711
15248 8598 7423
15249 1095 279 
15250 5633 6527
15251 8883 5094
15252 111  4491
15253 8883 2371
15254 7371 2681
15255 8347 7113
15256 2473 4686
15257 9264 5641
15258 6507 9666
15259 2782 7208
15260 8193 2724
15261 9143 9176
15262 3040 6070
15263 1885 7580
15264 3737 1201
15265 9259 4587
15266 7707 6214
15267 7125 6340
15268 5559 9408
15269 9823 5474
15270 903  6749
15271 489  2918
15272 5835 1290
15273 685  5841
15274 1757 5848
15275 8021 9107
15276 9164 9389
15277 7683 5387
15278 2244 3202
15279 1086 1906
15280 5427 2718
15281 6800 2183
15282 3851 7318
15283 5304 9613
15284 7002 3172
15285 2747 9474
15286 7087 6701
15287 3923 5040
15288 7311 1674
15289 1214 6812
15290 6377 8432
15291 6285 9895
15292 1047 9568
15293 8773 5077
15294 6113 8701
15295 8123 4925
15296 9472 2005
15297 5926 9405
15298 8475 7343
15299 6908 5436
15300 9573 6744
15301 220  4354
15302 183  4494
15303 9237 9695
15304 1699 846 
15305 7638 5982
15306 9975 6085
15307 8702 8046
15308 8092 4170
15309 933  8327
15310 6458 1873
15311 1154 344 
15312 4043 5929
15313 3341 5723
15314 2371 4872
15315 3282 6374
15316 9391 7315
15317 4727 2477
15318 6504 5317
15319 3087 6124
15320 6257 4019
15321 3805 703 
15322 1255 5203
15323 5915 2410
15324 4109 4945
15325 3943 7354
15326 2989 6115
15327 54   9083
15328 7612 4587
15329 821  7698
15330 8428 905 
15331 8508 6960
15332 8480 6918
15333 3951 1405
15334 1225 6782
15335 5592 4577
15336 680  8921
15337 4075 8196
15338 3433 6005
15339 5203 1073
15340 8565 9405
15341 1208 4886
15342 1780 6130
15343 1301 8277
15344 6970 2231
15345 7449 9843
15346 8204 894 
15347 1211 1067
15348 1025 4286
15349 9402 5817
15350 1247 334 
15351 6360 848 
15352 9682 3428
15353 4968 1791
15354 2748 4372
15355 2247 2544
15356 8942 3712
15357 5007 9213
15358 2151 9980
15359 2092 9512
15360 7189 14  
15361 1765 1950
15362 4711 1518
15363 8597 9152
15364 6851 5174
15365 4497 8221
15366 8049 9697
15367 4777 6128
15368 4257 1756
15369 6358 56  
15370 7862 5146
15371 6002 5788
15372 8392 2789
15373 8542 6886
15374 1301 5347
15375 7318 814 
15376 1765 7415
15377 3465 2682
15378 7821 6145
15379 6437 8927
15380 8670 7893
15381 4393 1352
15382 2978 2283
15383 2210 5953
15384 1006 8262
15385 2750 9916
15386 1653 51  
15387 7863 804 
15388 1999 8854
15389 2444 4942
15390 1226 719 
15391 9766 2196
15392 2267 9681
15393 1734 3223
15394 4929 8339
15395 347  3906
15396 4642 2395
15397 5443 2351
15398 7387 7989
15399 9753 5868
15400 9029 5496
15401 4282 1009
15402 5054 7079
15403 489  6534
15404 4539 4538
15405 1431 4447
15406 5813 1947
15407 2373 4824
15408 3427 7157
15409 9953 7570
15410 7589 9699
15411 1698 8008
15412 2463 16  
15413 9002 4460
15414 8368 4949
15415 7797 3718
15416 826  2512
15417 677  2051
15418 8996 1066
15419 1193 8219
15420 7760 8639
15421 9379 8138
15422 9867 6798
15423 3522 3323
15424 5398 6848
15425 200  2842
15426 2933 5561
15427 6053 7781
15428 8251 4411
15429 4673 314 
15430 3849 9493
15431 6331 4601
15432 6624 4205
15433 9693 8868
15434 4232 8570
15435 5471 6140
15436 5394 8384
15437 3443 6125
15438 5764 9781
15439 991  7712
15440 8948 4334
15441 824  8873
15442 1946 1409
15443 1305 3391
15444 9267 474 
15445 5527 1469
15446 2112 4113
15447 3643 5034
15448 1466 7018
15449 6322 3124
15450 3654 5742
15451 5584 8433
15452 6819 6777
15453 1851 8276
15454 8687 1500
15455 1055 8620
15456 1321 5195
15457 9813 4645
15458 7657 8548
15459 9518 5763
15460 2464 5725
15461 5659 1344
15462 479  4496
15463 2640 3988
15464 6807 1926
15465 5230 7938
15466 6020 9449
15467 6889 5839
15468 8135 9828
15469 960  4454
15470 6826 5118
15471 2849 4153
15472 7877 5862
15473 2300 4381
15474 8600 1883
15475 7945 9353
15476 1700 8208
15477 6521 3194
15478 7279 6749
15479 1715 4396
15480 9221 1276
15481 8246 9761
15482 462  7723
15483 3653 1944
15484 8582 8472
15485 6237 6584
15486 75   3748
15487 6733 8226
15488 1406 8724
15489 4278 1050
15490 2531 4299
15491 1041 752 
15492 2150 7797
15493 1148 6760
15494 2809 4775
15495 5957 5340
15496 5164 1140
15497 2995 4442
15498 377  4723
15499 6322 3943
15500 7395 3963
15501 4245 7507
15502 7085 9530
15503 707  6620
15504 817  9754
15505 1549 9678
15506 6137 2208
15507 7075 6988
15508 7345 4413
15509 2546 581 
15510 3962 2366
15511 1339 6827
15512 4139 6617
15513 8671 8796
15514 3714 9200
15515 614  1588
15516 8348 6388
15517 4810 9166
15518 8203 5520
15519 5263 3832
15520 4396 3822
15521 457  7740
15522 4924 1512
15523 4456 8231
15524 6232 2220
15525 4733 7313
15526 2006 4377
15527 7779 8896
15528 6995 162 
15529 4692 6994
15530 7303 883 
15531 6042 3853
15532 2028 1914
15533 1371 537 
15534 6489 6380
15535 2777 6139
15536 935  3792
15537 5353 3640
15538 8702 6105
15539 8855 3615
15540 7892 9464
15541 9350 4043
15542 4167 7451
15543 2998 5516
15544 5511 8420
15545 5270 3209
15546 4665 2639
15547 4887 4795
15548 1503 2270
15549 647  6883
15550 574  4073
15551 2947 6036
15552 6950 320 
15553 3668 8177
15554 5026 2171
15555 6546 141 
15556 442  5561
15557 3098 1497
15558 8789 4595
15559 7141 4197
15560 3442 1752
15561 3508 7327
15562 3643 4784
15563 1916 3787
15564 5634 1938
15565 5717 2019
15566 7407 4513
15567 6354 9321
15568 1841 78  
15569 4120 4394
15570 3301 8423
15571 3986 8669
15572 8126 7071
15573 1460 723 
15574 6956 4994
15575 901  6960
15576 6401 7642
15577 7057 8126
15578 6363 4435
15579 963  2142
15580 6240 6943
15581 1472 6915
15582 379  6388
15583 5345 8849
15584 287  9371
15585 4488 7517
15586 8233 2417
15587 4157 7022
15588 1481 3872
15589 3839 4807
15590 2109 9918
15591 5195 2879
15592 9190 4161
15593 2415 1664
15594 7267 4445
15595 1636 6507
15596 4681 8015
15597 6210 2226
15598 2074 7126
15599 2725 5720
15600 4456 3998
15601 3776 7814
15602 2967 3599
15603 8242 3742
15604 1684 516 
15605 4986 7442
15606 569  4261
15607 7630 5446
15608 7174 12  
15609 1272 5706
15610 9762 6724
15611 2924 3377
15612 944  2596
15613 5795 9143
15614 2480 4957
15615 6989 5002
15616 5135 922 
15617 2632 790 
15618 7314 6515
15619 5247 3543
15620 509  2168
15621 7348 4819
15622 6071 7652
15623 8240 3601
15624 4984 7837
15625 7171 9644
15626 857  8224
15627 4512 3551
15628 8033 8266
15629 1741 7209
15630 9304 6835
15631 6099 3580
15632 5059 619 
15633 5836 6300
15634 9906 2612
15635 5483 6441
15636 1819 9037
15637 9293 6130
15638 279  6688
15639 1214 3632
15640 1484 66  
15641 6246 1438
15642 1090 4736
15643 6309 4276
15644 2400 1919
15645 5457 4183
15646 6062 587 
15647 1632 2511
15648 9779 4090
15649 1963 5178
15650 5082 3590
15651 5293 408 
15652 2939 4985
15653 7191 9984
15654 4818 2207
15655 1594 3341
15656 5490 6101
15657 5280 6432
15658 5806 9700
15659 5133 1573
15660 3262 502 
15661 5145 5582
15662 6902 288 
15663 3468 8104
15664 1217 592 
15665 2284 5347
15666 2551 7218
15667 3979 3920
15668 5082 5428
15669 8041 4520
15670 9730 5652
15671 2320 2048
15672 3728 1522
15673 953  380 
15674 728  5001
15675 2056 3918
15676 8922 2753
15677 6224 771 
15678 9550 2991
15679 2693 3926
15680 9117 1572
15681 5388 8789
15682 9701 4382
15683 6544 8516
15684 708  4472
15685 9289 9452
15686 1394 9699
15687 9080 4914
15688 7822 2128
15689 1172 9763
15690 763  5400
15691 6213 1868
15692 2829 9232
15693 1927 4883
15694 1760 1451
15695 7150 4270
15696 8900 2453
15697 3423 985 
15698 3796 7793
15699 6386 6624
15700 5222 4070
15701 7858 9954
15702 3224 9829
15703 7056 1569
15704 9951 8661
15705 8054 3234
15706 8528 8681
15707 2995 1860
15708 5435 1516
15709 7652 9150
15710 814  1547
15711 7183 6967
15712 3629 5178
15713 7729 8130
15714 3973 5377
15715 6672 4326
15716 7883 7209
15717 3817 3569
15718 361  9125
15719 2980 4476
15720 4595 4659
15721 2725 524 
15722 2921 1489
15723 4783 4974
15724 9857 1377
15725 6389 7488
15726 5247 649 
15727 1084 3203
15728 5247 1314
15729 918  7778
15730 1771 5284
15731 5609 6753
15732 7101 2248
15733 2102 7866
15734 4419 3745
15735 740  6979
15736 3737 9732
15737 2819 9793
15738 7144 8810
15739 1369 3449
15740 8575 8571
15741 1808 1824
15742 6571 5819
15743 3749 7447
15744 5231 3693
15745 4116 4185
15746 6239 1871
15747 8219 9926
15748 5920 2167
15749 2504 8771
15750 6898 1659
15751 7345 56  
15752 5344 7056
15753 591  5764
15754 4563 171 
15755 237  2091
15756 5547 8446
15757 5714 4965
15758 4811 8379
15759 7404 3642
15760 7178 3637
15761 2043 6665
15762 503  787 
15763 5602 4425
15764 7306 7622
15765 594  8167
15766 5462 7336
15767 878  1204
15768 5005 8330
15769 4906 3582
15770 4351 4197
15771 8338 5094
15772 5066 2688
15773 899  7591
15774 3639 5165
15775 1150 5275
15776 7414 7638
15777 9768 1548
15778 8959 9550
15779 6539 6985
15780 420  4025
15781 2238 9541
15782 1200 4524
15783 4771 5135
15784 8872 3052
15785 1704 9301
15786 3857 4226
15787 9412 2453
15788 3230 2328
15789 4847 2285
15790 6629 7824
15791 3036 7351
15792 1026 4395
15793 3380 8395
15794 1923 7844
15795 9368 3134
15796 3432 2915
15797 1495 9413
15798 5057 6957
15799 6685 9695
15800 3671 2325
15801 2908 9222
15802 2225 3716
15803 3806 3835
15804 848  8895
15805 704  6701
15806 3181 5723
15807 6574 7643
15808 4811 7407
15809 2586 9760
15810 1600 6035
15811 367  9205
15812 9656 5402
15813 8493 9520
15814 1895 6361
15815 2305 455 
15816 4442 4912
15817 1287 3254
15818 5430 3882
15819 7538 2698
15820 2517 9273
15821 6926 5073
15822 3060 2154
15823 8487 8211
15824 1325 3617
15825 6163 8691
15826 3583 9262
15827 3218 5902
15828 7151 5472
15829 9960 6836
15830 4600 2273
15831 2135 9307
15832 9144 5237
15833 3431 6932
15834 1078 4502
15835 644  7991
15836 7871 5741
15837 1653 287 
15838 2399 9849
15839 4206 5492
15840 1957 287 
15841 1012 3796
15842 539  9011
15843 3119 3900
15844 5518 8950
15845 8994 2908
15846 1920 5542
15847 6938 7333
15848 4078 149 
15849 183  7399
15850 3227 8320
15851 5165 7651
15852 4147 9447
15853 71   8229
15854 5799 6978
15855 9351 859 
15856 972  8583
15857 3141 8026
15858 3218 9437
15859 9442 7396
15860 3308 3299
15861 4363 6719
15862 625  3629
15863 7971 2353
15864 8266 4227
15865 5173 7315
15866 3673 8048
15867 38   1959
15868 8718 5136
15869 9805 9616
15870 2393 9127
15871 6655 6459
15872 5724 2694
15873 6592 4732
15874 2682 6543
15875 4726 8429
15876 6771 3207
15877 9792 7347
15878 7130 227 
15879 9718 8505
15880 9575 8544
15881 3030 184 
15882 9242 9669
15883 9707 7521
15884 6887 2507
15885 3861 834 
15886 7588 4177
15887 1116 8328
15888 1927 2891
15889 4123 4246
15890 9169 7077
15891 8963 7522
15892 1197 7607
15893 6206 8162
15894 3405 8047
15895 3665 7646
15896 1528 9807
15897 6116 9197
15898 7863 3523
15899 1371 8427
15900 7501 5438
15901 2923 3096
15902 9422 9495
15903 959  3909
15904 5137 1442
15905 2955 9211
15906 4759 3771
15907 8175 7567
15908 2895 332 
15909 8192 9467
15910 2056 7316
15911 4354 7331
15912 4475 3531
15913 9181 9112
15914 4200 8242
15915 46   6228
15916 2012 8371
15917 804  807 
15918 2058 6117
15919 5293 6469
15920 4969 2953
15921 7002 9194
15922 5947 3177
15923 4739 7685
15924 4032 8847
15925 9364 152 
15926 1735 3974
15927 9068 7027
15928 1794 1452
15929 8608 9705
15930 7240 9898
15931 9739 6646
15932 923  3462
15933 8967 3379
15934 2250 6894
15935 4206 1096
15936 8231 5236
15937 7955 4721
15938 2157 1970
15939 5533 6116
15940 286  9178
15941 3426 5930
15942 9364 2954
15943 5560 6392
15944 5451 5845
15945 6487 6924
15946 7117 4084
15947 2804 945 
15948 9814 9561
15949 8575 4932
15950 9834 7975
15951 3023 1322
15952 1508 6965
15953 584  144 
15954 3389 1637
15955 643  4045
15956 1460 7775
15957 1022 4936
15958 2172 1775
15959 2237 9220
15960 7534 3798
15961 8486 1107
15962 439  3202
15963 9774 2971
15964 1046 4338
15965 2023 5591
15966 457  8506
15967 2907 6286
15968 141  4057
15969 3585 4430
15970 4378 6575
15971 4259 3567
15972 9361 6368
15973 7760 3683
15974 6553 3399
15975 6325 4831
15976 416  8357
15977 6292 3455
15978 262  4929
15979 6004 8925
15980 8015 2507
15981 6560 5611
15982 9886 7167
15983 2929 9552
15984 9249 3646
15985 2200 3859
15986 7695 4646
15987 1870 4341
15988 4449 9281
15989 8716 3944
15990 1868 9845
15991 3068 3941
15992 6669 7149
15993 314  1469
15994 7097 5339
15995 3335 2012
15996 314  976 
15997 8263 3784
15998 7038 1518
15999 3316 6549
16000 331  6272
16001 3552 3211
16002 762  2321
16003 7993 4650
16004 5345 9836
16005 4596 9312
16006 65   1085
16007 1216 9441
16008 4191 7174
16009 9864 6371
16010 8074 1995
16011 7312 7307
16012 7704 2237
16013 4496 1064
16014 80   6973
16015 4485 7064
16016 5504 2768
16017 2754 8441
16018 4234 6083
16019 890  8467
16020 1740 3074
16021 7380 4921
16022 6657 9305
16023 5406 8079
16024 3906 7026
16025 5921 5073
16026 2172 773 
16027 8893 4381
16028 7877 3089
16029 8871 6198
16030 8844 4323
16031 9547 4388
16032 4803 5031
16033 2012 3526
16034 9437 8965
16035 2121 6240
16036 7588 1673
16037 9199 343 
16038 4340 6841
16039 173  5741
16040 3208 3349
16041 6726 5397
16042 4280 676 
16043 6297 7158
16044 5956 3559
16045 9486 2794
16046 8048 708 
16047 4529 5389
16048 7690 9055
16049 1989 7978
16050 583  3770
16051 4765 7914
16052 8411 8723
16053 7241 4222
16054 423  7498
16055 4337 5381
16056 8064 4698
16057 6670 2488
16058 4372 9088
16059 2377 8471
16060 8207 2938
16061 5772 4781
16062 7952 4382
16063 7324 7657
16064 2168 9647
16065 9982 4126
16066 3821 3946
16067 9549 2592
16068 4658 4074
16069 6374 5172
16070 4423 9200
16071 5827 9478
16072 4776 6232
16073 8314 5855
16074 4459 9141
16075 99   272 
16076 5592 4544
16077 6710 1559
16078 6984 2753
16079 3718 6849
16080 5773 2618
16081 7476 3390
16082 9953 8869
16083 8876 9   
16084 2921 7655
16085 5569 441 
16086 7792 9705
16087 5542 3772
16088 3694 7701
16089 8241 3735
16090 7526 3946
16091 5208 773 
16092 3050 5336
16093 7973 734 
16094 566  995 
16095 8627 1660
16096 7320 1606
16097 5214 3813
16098 7887 809 
16099 4185 1014
16100 6884 160 
16101 5335 9974
16102 8071 9650
16103 2116 8123
16104 1372 545 
16105 7922 3287
16106 1846 9784
16107 5638 6568
16108 1608 6594
16109 4770 2123
16110 1436 1205
16111 7903 3213
16112 4936 5594
16113 5542 2564
16114 2766 5930
16115 1872 4319
16116 7604 2433
16117 8073 7158
16118 1301 8835
16119 3127 4291
16120 9361 5848
16121 8130 3469
16122 1075 1293
16123 7912 8827
16124 8716 988 
16125 3718 229 
16126 1133 2792
16127 2691 6909
16128 1676 9437
16129 9499 8393
16130 7766 7040
16131 9176 9340
16132 8848 9961
16133 7684 9553
16134 1635 7115
16135 2334 6219
16136 2314 6458
16137 1789 6947
16138 2769 7419
16139 8895 5710
16140 1661 5685
16141 6231 1748
16142 2344 9662
16143 9412 1811
16144 3625 8821
16145 2553 9433
16146 9211 8397
16147 1549 5831
16148 9814 8769
16149 9839 3501
16150 7013 1616
16151 995  9364
16152 1867 8028
16153 7278 579 
16154 6453 3954
16155 4167 5751
16156 2772 6476
16157 7092 4355
16158 8575 9615
16159 9934 6364
16160 1362 8470
16161 3175 6867
16162 3358 5368
16163 6937 9431
16164 8948 4301
16165 5850 1144
16166 6766 979 
16167 8271 8447
16168 2171 134 
16169 9692 2536
16170 9573 6291
16171 1517 1469
16172 7404 7645
16173 8546 3288
16174 6102 6666
16175 7792 2726
16176 845  5729
16177 4124 1532
16178 1394 7195
16179 609  2294
16180 6458 9178
16181 166  1270
16182 9762 6222
16183 2057 7865
16184 8595 4190
16185 6127 4625
16186 882  4788
16187 9234 2112
16188 3466 2317
16189 2925 1722
16190 3932 9740
16191 3025 2628
16192 5727 4157
16193 2652 6997
16194 2167 1492
16195 362  5007
16196 9711 2119
16197 1585 6736
16198 4490 3132
16199 538  4025
16200 8193 1985
16201 1329 1938
16202 4807 7072
16203 7145 2498
16204 1754 5760
16205 1361 6657
16206 3338 7532
16207 8490 788 
16208 1791 9172
16209 7160 469 
16210 3340 9858
16211 2575 4347
16212 2622 1818
16213 7757 2437
16214 7709 5910
16215 1109 5865
16216 6979 7740
16217 4363 9964
16218 7607 7507
16219 2147 6796
16220 9088 7919
16221 8908 8011
16222 9254 6131
16223 8254 2037
16224 7196 2877
16225 8274 4379
16226 1770 2030
16227 5654 6717
16228 9206 9350
16229 6265 9301
16230 195  1476
16231 8740 7307
16232 7855 8633
16233 2089 8253
16234 66   6191
16235 9497 6070
16236 6662 629 
16237 5887 5393
16238 8419 6042
16239 7344 8358
16240 3778 2077
16241 9615 1371
16242 1645 6423
16243 3280 2822
16244 7469 6160
16245 9548 3569
16246 878  6222
16247 9839 2478
16248 9362 2142
16249 5437 2671
16250 6819 3564
16251 7098 6784
16252 178  1220
16253 5151 314 
16254 5883 4676
16255 6812 8217
16256 6119 1609
16257 2434 8646
16258 160  5998
16259 3889 5748
16260 2742 3123
16261 9663 547 
16262 7143 506 
16263 4160 1683
16264 2128 904 
16265 5124 891 
16266 3626 2164
16267 7085 8712
16268 1179 924 
16269 3656 8762
16270 5890 4329
16271 7165 9899
16272 3787 308 
16273 9369 5269
16274 9439 7083
16275 171  2855
16276 5676 1217
16277 2021 2123
16278 6121 3094
16279 1954 2196
16280 6065 3791
16281 7106 272 
16282 8281 208 
16283 3646 5662
16284 6559 1219
16285 525  424 
16286 6551 300 
16287 4160 2331
16288 502  9691
16289 4795 7979
16290 8412 3790
16291 8954 173 
16292 5792 8695
16293 2152 5380
16294 3634 5653
16295 3051 3025
16296 4188 3966
16297 8748 2253
16298 2711 3497
16299 8003 562 
16300 4818 4147
16301 2016 3614
16302 9418 7947
16303 6989 7940
16304 8473 2252
16305 539  552 
16306 737  4042
16307 6872 4010
16308 7388 4693
16309 3284 5415
16310 6169 2452
16311 7774 862 
16312 1240 3969
16313 2340 952 
16314 2031 6229
16315 1607 702 
16316 7029 1098
16317 5219 7239
16318 9921 7167
16319 7194 3022
16320 5707 139 
16321 8354 6143
16322 2985 7154
16323 5924 5703
16324 8412 4398
16325 9553 4551
16326 7656 4926
16327 6329 8929
16328 8037 640 
16329 361  3992
16330 1982 6791
16331 9082 4373
16332 2402 124 
16333 7544 6247
16334 7631 9721
16335 9112 6661
16336 5849 955 
16337 8471 8359
16338 7955 851 
16339 1941 3972
16340 6885 916 
16341 6266 6604
16342 7656 4602
16343 7826 5920
16344 1902 5159
16345 2331 2896
16346 9334 1278
16347 7324 8016
16348 5100 2910
16349 1376 1046
16350 3689 7233
16351 9117 7657
16352 9247 303 
16353 5599 497 
16354 3205 8788
16355 7213 5159
16356 3956 3561
16357 1092 3861
16358 7555 923 
16359 9908 7469
16360 1175 4414
16361 6979 2329
16362 8722 5009
16363 195  4373
16364 3996 4527
16365 9206 3201
16366 7485 9617
16367 3618 2832
16368 8659 5167
16369 9245 9058
16370 3570 2184
16371 4701 5243
16372 2747 4591
16373 9071 4067
16374 7366 867 
16375 671  2614
16376 7710 4048
16377 5942 520 
16378 216  4160
16379 7671 5564
16380 8023 7959
16381 2187 918 
16382 8954 4749
16383 1507 3416
16384 5929 1613
16385 1379 4886
16386 9766 413 
16387 3115 8802
16388 4051 1876
16389 3148 4853
16390 1545 7309
16391 6914 8915
16392 444  4500
16393 4789 3813
16394 9068 6526
16395 5049 9687
16396 3683 9029
16397 4065 5529
16398 9663 8645
16399 8001 1902
16400 6635 8122
16401 1877 4287
16402 2793 2373
16403 9944 3467
16404 2559 6261
16405 1680 2925
16406 7129 9462
16407 9271 5209
16408 1397 4890
16409 4705 4612
16410 201  633 
16411 5774 5093
16412 5356 6547
16413 200  1043
16414 9552 2650
16415 6838 5185
16416 4961 321 
16417 5934 6962
16418 2646 6542
16419 6921 2763
16420 310  1606
16421 6531 8985
16422 6639 2455
16423 9709 6495
16424 3867 7907
16425 8121 6716
16426 6017 3317
16427 6479 8853
16428 9807 6731
16429 3475 1879
16430 7345 2703
16431 2433 5585
16432 4273 2873
16433 1671 3222
16434 4432 3777
16435 6180 5746
16436 7137 5604
16437 5892 813 
16438 5211 3818
16439 2563 6670
16440 8607 4754
16441 3113 3789
16442 7748 2440
16443 1659 3474
16444 4114 2237
16445 3705 1428
16446 4693 75  
16447 5966 1346
16448 1886 4839
16449 3009 9086
16450 7383 2340
16451 5945 1605
16452 5482 4334
16453 7066 3594
16454 1491 4183
16455 1131 4755
16456 5932 896 
16457 4130 4148
16458 1695 5402
16459 9924 3053
16460 2707 5464
16461 4815 8102
16462 7749 8455
16463 9727 3473
16464 5215 5403
16465 7260 7969
16466 8314 7181
16467 4007 514 
16468 2960 1478
16469 6309 5604
16470 3752 5613
16471 9622 1242
16472 5074 5073
16473 276  6855
16474 3415 7584
16475 7821 3603
16476 2306 9121
16477 8457 1124
16478 9566 2361
16479 5053 1295
16480 419  6862
16481 5433 8260
16482 7633 6590
16483 4970 7186
16484 805  9397
16485 2036 6726
16486 1518 4040
16487 5102 2795
16488 990  6753
16489 3902 9370
16490 627  125 
16491 7549 931 
16492 3985 398 
16493 4759 4775
16494 8682 4770
16495 9377 8066
16496 4426 8203
16497 1297 8617
16498 3422 239 
16499 9175 7650
16500 3473 9570
16501 956  2694
16502 5356 3567
16503 8817 8885
16504 153  2624
16505 1228 5342
16506 838  5654
16507 252  3098
16508 7861 935 
16509 9246 2464
16510 9841 8125
16511 5741 3706
16512 2618 2115
16513 6999 3911
16514 4137 206 
16515 7037 6653
16516 7459 3890
16517 3278 277 
16518 5995 472 
16519 6791 2204
16520 2043 9850
16521 4282 2139
16522 5720 8518
16523 5960 9547
16524 1253 6171
16525 8823 7980
16526 1349 6015
16527 2158 9900
16528 8141 29  
16529 5027 8858
16530 5528 8043
16531 5034 3839
16532 2619 3200
16533 3344 5707
16534 7771 8938
16535 2159 7684
16536 5949 3172
16537 4839 8438
16538 2889 4870
16539 5079 242 
16540 2366 6721
16541 8301 5965
16542 1914 7383
16543 4686 2852
16544 2976 3501
16545 374  4389
16546 9676 648 
16547 4891 7293
16548 6314 4287
16549 1354 6274
16550 7178 2975
16551 1039 6200
16552 9745 425 
16553 5092 1809
16554 181  7133
16555 9718 7509
16556 4506 7887
16557 1945 4691
16558 9395 9935
16559 6268 6831
16560 3562 4206
16561 59   1507
16562 1967 4376
16563 7838 4308
16564 3125 5798
16565 9149 4281
16566 8378 3020
16567 2039 722 
16568 489  6791
16569 2560 3378
16570 3441 2817
16571 7963 4039
16572 6717 9348
16573 3135 2590
16574 9050 185 
16575 8111 4411
16576 3933 3793
16577 2955 2308
16578 6841 1701
16579 1150 8706
16580 4779 3523
16581 124  9064
16582 3919 4914
16583 6132 836 
16584 6051 7670
16585 4242 4143
16586 9959 3704
16587 12   8478
16588 5436 9520
16589 1640 5068
16590 3022 8121
16591 7795 3788
16592 2837 3969
16593 9056 8581
16594 7778 3992
16595 7498 7007
16596 199  8085
16597 4836 5038
16598 9325 9296
16599 350  6166
16600 5009 4313
16601 2465 5936
16602 9330 6788
16603 4867 6623
16604 1380 3805
16605 1799 2563
16606 468  4524
16607 5783 927 
16608 4662 7702
16609 5809 9447
16610 8375 9070
16611 5857 3912
16612 8777 5458
16613 831  3549
16614 8594 1475
16615 2182 1276
16616 1089 4143
16617 4869 8654
16618 4200 486 
16619 1912 4959
16620 5735 3829
16621 250  9300
16622 377  2833
16623 4538 7149
16624 2739 1352
16625 6466 9258
16626 3640 3268
16627 7716 2488
16628 7766 875 
16629 7738 8184
16630 8192 982 
16631 3884 2202
16632 4628 2784
16633 2205 9710
16634 9019 3208
16635 8108 8072
16636 8670 7131
16637 1117 8433
16638 8550 6982
16639 1191 3236
16640 9229 4211
16641 7341 4633
16642 3624 3552
16643 3832 7780
16644 6470 9273
16645 5270 39  
16646 2080 9348
16647 1690 2151
16648 3343 5843
16649 353  3316
16650 4702 1460
16651 4280 3365
16652 796  2614
16653 3416 4101
16654 408  3662
16655 3241 5981
16656 5042 4532
16657 4801 2895
16658 4575 3777
16659 961  8885
16660 3206 2866
16661 1456 5541
16662 8137 1154
16663 398  1991
16664 6075 2732
16665 8542 8502
16666 2495 8182
16667 9803 1812
16668 2206 3812
16669 1728 477 
16670 6989 2944
16671 932  2794
16672 4257 8440
16673 6456 2521
16674 8193 1970
16675 5395 6925
16676 3354 786 
16677 744  3801
16678 8991 6884
16679 2975 9455
16680 7594 2683
16681 7506 1951
16682 668  153 
16683 654  4060
16684 3391 9653
16685 251  4982
16686 2694 1411
16687 4680 9203
16688 7869 5731
16689 7142 2828
16690 3917 5665
16691 6405 4937
16692 6455 2899
16693 9567 5011
16694 3873 4112
16695 5206 3244
16696 6564 6481
16697 4538 4881
16698 5399 7078
16699 1943 9828
16700 1217 5109
16701 1656 8818
16702 7672 4338
16703 3714 779 
16704 2624 6667
16705 8017 7651
16706 6985 3174
16707 6061 3704
16708 5404 1309
16709 4982 8524
16710 3140 5913
16711 5104 9556
16712 5726 731 
16713 9594 2735
16714 4328 5292
16715 9856 9273
16716 1536 7870
16717 581  2110
16718 6372 9642
16719 1690 6516
16720 2011 492 
16721 2190 9255
16722 6427 721 
16723 2059 4129
16724 6600 315 
16725 1026 3463
16726 8248 4579
16727 1578 1047
16728 3111 4217
16729 9774 2881
16730 3130 1069
16731 9710 1687
16732 6394 2612
16733 6761 8503
16734 4878 9652
16735 8550 5914
16736 5629 2575
16737 1135 1575
16738 5927 5130
16739 4583 4881
16740 2054 8785
16741 3414 8821
16742 5986 250 
16743 7550 361 
16744 4982 7872
16745 6994 1154
16746 792  6492
16747 7152 7806
16748 928  5969
16749 9878 4445
16750 8760 6103
16751 4878 5745
16752 1944 5564
16753 1493 7548
16754 3831 7023
16755 8320 9055
16756 1661 2808
16757 3064 3489
16758 8670 472 
16759 3157 3224
16760 7126 7128
16761 1903 8191
16762 7633 1428
16763 7714 7028
16764 2954 7125
16765 6438 674 
16766 8072 7485
16767 9041 2350
16768 7233 99  
16769 6774 13  
16770 7009 7212
16771 197  749 
16772 1219 2120
16773 241  437 
16774 6274 9910
16775 3601 9413
16776 810  3755
16777 2852 7586
16778 1939 9925
16779 2482 1434
16780 3556 7224
16781 1956 2424
16782 9644 86  
16783 2220 9269
16784 2447 2509
16785 3634 2265
16786 5431 2664
16787 1527 110 
16788 3024 3904
16789 2690 8718
16790 6628 193 
16791 4096 4956
16792 2623 1697
16793 9561 3226
16794 8200 4030
16795 1228 6468
16796 2504 4711
16797 6366 8903
16798 609  4577
16799 4523 7569
16800 9349 8485
16801 8886 3973
16802 4510 7195
16803 1516 1685
16804 5893 6436
16805 5747 7964
16806 5584 3220
16807 8238 1854
16808 9587 7195
16809 902  4224
16810 1722 6602
16811 2620 4791
16812 3666 1998
16813 1958 8355
16814 8217 5051
16815 2750 37  
16816 2805 1414
16817 6196 3025
16818 3334 3173
16819 6517 79  
16820 2672 8093
16821 8768 257 
16822 9751 5150
16823 6052 7621
16824 9217 2832
16825 9435 7687
16826 7388 4571
16827 4965 7138
16828 1039 5782
16829 900  3996
16830 444  6481
16831 21   597 
16832 2027 8328
16833 2979 6560
16834 453  5810
16835 7355 8051
16836 6279 7102
16837 9611 2382
16838 9727 5081
16839 7441 454 
16840 724  6399
16841 8853 4023
16842 2637 5818
16843 4086 232 
16844 6185 4306
16845 1682 8192
16846 2818 3654
16847 2707 809 
16848 592  8127
16849 7247 5972
16850 2480 4030
16851 8842 3334
16852 514  5431
16853 3868 8332
16854 8608 8925
16855 3822 3228
16856 9009 9735
16857 8887 5547
16858 5200 2343
16859 8775 2183
16860 200  4516
16861 3671 4388
16862 2063 8763
16863 4917 4224
16864 3383 4459
16865 5131 5917
16866 6505 8860
16867 8855 1818
16868 5414 7153
16869 1148 4600
16870 3286 1827
16871 2082 9608
16872 7514 1385
16873 5845 3331
16874 8540 7907
16875 8444 7572
16876 4613 5242
16877 6819 1213
16878 6279 9376
16879 1977 7571
16880 3861 7848
16881 7964 8117
16882 3034 4102
16883 6650 1638
16884 3874 3652
16885 9391 2896
16886 5048 2407
16887 4163 9067
16888 9372 3171
16889 2498 6295
16890 829  8673
16891 1455 6099
16892 5673 6790
16893 5836 8431
16894 2963 2813
16895 6555 3471
16896 9099 258 
16897 807  880 
16898 3605 9360
16899 9273 1936
16900 9850 9595
16901 3877 2635
16902 1060 8912
16903 1477 8718
16904 910  250 
16905 4423 1614
16906 4137 9524
16907 6511 7196
16908 1818 6129
16909 4591 905 
16910 1672 8496
16911 815  7084
16912 4749 2967
16913 3926 6769
16914 9829 915 
16915 7886 27  
16916 529  9842
16917 7515 5036
16918 2567 5586
16919 7788 3480
16920 5979 1125
16921 590  5800
16922 6990 726 
16923 3162 8015
16924 1225 1018
16925 5906 5600
16926 4772 6647
16927 374  6371
16928 9170 640 
16929 1582 5712
16930 2331 5333
16931 5593 1881
16932 6984 1033
16933 6064 7259
16934 4875 2074
16935 8264 3762
16936 6035 8402
16937 5984 8512
16938 3112 1429
16939 9122 1840
16940 9092 3464
16941 6787 3789
16942 2430 5271
16943 3550 2333
16944 7890 6417
16945 3834 5388
16946 5320 2223
16947 3502 5419
16948 3422 15  
16949 4527 8833
16950 4642 3658
16951 1327 9217
16952 3279 4071
16953 6731 4846
16954 1997 7936
16955 4673 5848
16956 3959 3562
16957 3232 9964
16958 5284 3011
16959 203  9297
16960 6976 6510
16961 4387 8929
16962 7691 7302
16963 8812 2467
16964 7966 9190
16965 5595 5717
16966 7370 2732
16967 9828 2230
16968 7387 2379
16969 429  3006
16970 4466 9512
16971 3112 7480
16972 1700 5584
16973 4352 3613
16974 2274 9392
16975 4200 9422
16976 3062 9947
16977 4315 242 
16978 8179 7246
16979 4240 4641
16980 1346 3478
16981 9718 2375
16982 1989 2208
16983 2787 2589
16984 7805 7107
16985 7804 25  
16986 9219 9647
16987 7400 2275
16988 388  657 
16989 3785 9270
16990 4772 6522
16991 5338 8100
16992 4532 3400
16993 346  9072
16994 6318 6729
16995 8679 2959
16996 3621 4284
16997 1064 1616
16998 6262 9482
16999 4518 3996
17000 2755 3516
17001 4417 5216
17002 4549 9949
17003 3108 4391
17004 1313 5196
17005 4404 7231
17006 2922 7193
17007 5860 9648
17008 630  7801
17009 5571 5995
17010 4149 7582
17011 9298 6709
17012 8776 6160
17013 2519 7506
17014 8101 6531
17015 1587 8360
17016 5168 5893
17017 7732 1365
17018 2906 9414
17019 5875 5576
17020 1471 2829
17021 5959 176 
17022 4377 9556
17023 9400 2410
17024 6914 6193
17025 7775 5756
17026 137  1370
17027 3629 4033
17028 7750 6091
17029 5396 1921
17030 9544 3581
17031 4891 9860
17032 177  7822
17033 3289 1213
17034 9939 4297
17035 8075 2117
17036 9792 7602
17037 459  3933
17038 7095 1056
17039 1806 5858
17040 9267 3701
17041 6704 4139
17042 1420 7374
17043 7571 5552
17044 2929 4032
17045 8759 2301
17046 3707 7473
17047 6620 9979
17048 8918 6411
17049 4224 2241
17050 3377 8650
17051 1741 8636
17052 7875 9905
17053 1344 3677
17054 1841 7208
17055 3963 5626
17056 7579 9716
17057 3259 826 
17058 4797 2046
17059 8247 488 
17060 6182 1278
17061 5937 5589
17062 3293 535 
17063 2760 9906
17064 4218 818 
17065 349  1063
17066 2716 9154
17067 6423 3014
17068 9142 9848
17069 6401 289 
17070 8843 4357
17071 114  580 
17072 4692 4875
17073 7689 3401
17074 8338 2730
17075 3805 5598
17076 3912 9076
17077 3105 8658
17078 9693 5729
17079 8220 8666
17080 7521 7712
17081 8494 2888
17082 3738 2393
17083 5512 6116
17084 5798 274 
17085 4788 9400
17086 4461 1337
17087 4586 3438
17088 5697 4022
17089 687  4951
17090 9821 960 
17091 4298 981 
17092 2697 504 
17093 2028 5916
17094 5075 9514
17095 8798 3803
17096 9815 6803
17097 1407 2630
17098 6783 6045
17099 1269 4949
17100 3958 3352
17101 9460 1451
17102 5233 1976
17103 3784 366 
17104 2229 4244
17105 158  119 
17106 3399 2192
17107 6903 1350
17108 5120 4642
17109 6934 5502
17110 4260 5990
17111 6297 7410
17112 9857 1170
17113 3773 3756
17114 6350 5205
17115 1326 3220
17116 6794 6345
17117 2011 5164
17118 8452 7546
17119 5309 588 
17120 8272 7286
17121 8318 7858
17122 9574 7912
17123 4704 9497
17124 4189 3717
17125 7797 7155
17126 519  9199
17127 2243 6774
17128 9966 8062
17129 7796 3062
17130 7607 2321
17131 1285 5581
17132 4982 425 
17133 7004 9891
17134 5648 2305
17135 4628 9703
17136 8745 6641
17137 7337 6852
17138 4097 3146
17139 7864 9633
17140 3386 5389
17141 2817 1866
17142 8061 7248
17143 992  3356
17144 8876 2860
17145 4586 155 
17146 2609 3378
17147 7335 899 
17148 9004 1460
17149 6345 6613
17150 4012 9477
17151 2690 4313
17152 9368 5386
17153 6357 7054
17154 1336 1470
17155 7385 8426
17156 8988 3780
17157 3529 4302
17158 75   1220
17159 7084 4288
17160 2560 6937
17161 1081 4901
17162 5244 2325
17163 599  3562
17164 8735 4975
17165 9599 2317
17166 9203 4864
17167 5406 50  
17168 5395 2539
17169 3802 2894
17170 5921 4758
17171 2694 5404
17172 7986 3172
17173 4785 1941
17174 5201 5240
17175 237  5780
17176 6327 3699
17177 4120 6376
17178 6602 6425
17179 8497 437 
17180 6238 9892
17181 8495 2543
17182 6596 5242
17183 538  1080
17184 7571 3026
17185 3578 4072
17186 6524 2644
17187 4123 6748
17188 6127 5615
17189 1964 2414
17190 5255 6337
17191 5178 1338
17192 4361 5896
17193 9707 8828
17194 507  8336
17195 8726 2593
17196 2996 1585
17197 3216 7628
17198 9648 6022
17199 2098 2944
17200 6595 7609
17201 3341 623 
17202 4387 5521
17203 8757 4818
17204 4363 9139
17205 1017 2244
17206 9894 3494
17207 4016 126 
17208 5618 3381
17209 3524 444 
17210 7085 9729
17211 7487 5842
17212 9980 1770
17213 4990 9026
17214 7644 4310
17215 1562 2818
17216 6788 6025
17217 2671 9271
17218 5895 94  
17219 5613 7655
17220 3889 5590
17221 3923 1398
17222 4191 770 
17223 976  5721
17224 7728 5103
17225 1257 3576
17226 9739 1497
17227 151  8367
17228 3193 8055
17229 8523 3665
17230 6293 2760
17231 7601 1838
17232 6888 3641
17233 8660 1113
17234 9227 73  
17235 5950 118 
17236 4647 8196
17237 7877 5154
17238 9880 5257
17239 4365 7895
17240 7372 4577
17241 1196 8032
17242 2517 2940
17243 9242 1449
17244 9033 3684
17245 2661 4790
17246 8138 8291
17247 5499 7830
17248 8211 8831
17249 4113 8316
17250 9364 3615
17251 2562 3674
17252 7466 871 
17253 3364 603 
17254 4868 3415
17255 3421 2338
17256 7468 1916
17257 643  5093
17258 1274 5047
17259 5080 3120
17260 7984 1506
17261 6227 2361
17262 59   7275
17263 8178 5884
17264 7309 7061
17265 4607 7069
17266 938  9867
17267 8547 1677
17268 4771 4951
17269 2494 3165
17270 2795 8085
17271 608  6551
17272 9833 9869
17273 7309 2116
17274 7186 957 
17275 7792 1440
17276 7163 7716
17277 3966 7948
17278 7720 7468
17279 385  590 
17280 4648 8052
17281 5097 2423
17282 2475 3411
17283 6074 9781
17284 6864 7760
17285 9953 58  
17286 2486 881 
17287 3149 2703
17288 2121 8819
17289 1857 671 
17290 8494 8138
17291 1761 5110
17292 4756 2763
17293 7381 2878
17294 3584 3332
17295 9908 1800
17296 2926 4782
17297 2843 4675
17298 2535 706 
17299 2967 7065
17300 6785 7906
17301 3197 2514
17302 1684 4547
17303 8804 7578
17304 3226 132 
17305 5231 5458
17306 5111 8143
17307 7975 9643
17308 7347 4276
17309 7632 8199
17310 862  5071
17311 5505 3867
17312 9418 4837
17313 1230 4325
17314 7136 7864
17315 1591 3253
17316 3566 5568
17317 7742 9573
17318 8198 1338
17319 1762 2595
17320 9368 1205
17321 4337 2003
17322 6277 1930
17323 7566 3006
17324 7868 6410
17325 5348 3375
17326 2831 5866
17327 8171 5558
17328 3217 8694
17329 5145 847 
17330 9594 3087
17331 7516 1220
17332 3942 5767
17333 7538 4507
17334 2181 1999
17335 6649 9070
17336 1810 9729
17337 1995 870 
17338 2946 8486
17339 9493 378 
17340 3166 4928
17341 9927 3041
17342 5026 8363
17343 3281 4254
17344 1443 8393
17345 6819 8019
17346 3916 7560
17347 1601 1041
17348 2231 6980
17349 7961 778 
17350 5293 5585
17351 643  9276
17352 5554 8963
17353 5293 539 
17354 7258 9419
17355 7373 2773
17356 5124 331 
17357 2053 4772
17358 7408 7940
17359 5269 579 
17360 4707 5823
17361 1565 5388
17362 1012 7462
17363 4187 1963
17364 255  5591
17365 2618 6534
17366 1435 3651
17367 8260 2473
17368 8329 8974
17369 9557 7488
17370 7635 1328
17371 2742 2095
17372 7433 5130
17373 1925 1533
17374 4782 3908
17375 2598 1593
17376 8650 3959
17377 2659 4622
17378 8279 3922
17379 4960 961 
17380 8539 1621
17381 7120 7080
17382 4953 8435
17383 9348 1430
17384 5561 170 
17385 5956 5226
17386 792  7133
17387 557  423 
17388 3682 1304
17389 8047 1093
17390 3286 9283
17391 5197 7929
17392 9010 9592
17393 3379 7217
17394 3586 7844
17395 8384 9431
17396 9657 413 
17397 1923 1890
17398 3012 1421
17399 3046 6964
17400 8940 4438
17401 7026 1652
17402 1371 443 
17403 7250 4687
17404 9736 7478
17405 2823 6284
17406 8015 1795
17407 8616 927 
17408 6841 2134
17409 8500 49  
17410 2390 5599
17411 3917 9016
17412 7970 9490
17413 8931 2152
17414 9452 6539
17415 7099 4087
17416 598  5986
17417 8719 8183
17418 7957 8784
17419 4491 6123
17420 1140 7683
17421 6695 9144
17422 3640 9796
17423 6286 6028
17424 1040 9312
17425 1102 8994
17426 4152 9991
17427 7028 3775
17428 7515 403 
17429 4797 1157
17430 6660 4811
17431 9033 7693
17432 9891 822 
17433 5892 9381
17434 9952 5456
17435 533  9520
17436 5502 9621
17437 193  4634
17438 4080 7420
17439 1473 8050
17440 9085 887 
17441 5581 4691
17442 5651 7078
17443 3115 626 
17444 4140 1079
17445 1982 568 
17446 7470 8830
17447 4246 4091
17448 9267 6330
17449 1836 421 
17450 9077 3390
17451 48   4123
17452 8037 1397
17453 3856 5774
17454 7695 8432
17455 4163 4772
17456 4284 8978
17457 786  7052
17458 3483 8049
17459 4056 752 
17460 3756 529 
17461 3915 9837
17462 1963 6850
17463 2120 2293
17464 9553 8322
17465 2777 9832
17466 2680 9053
17467 5095 448 
17468 9369 4984
17469 9995 9083
17470 2554 5393
17471 7556 885 
17472 9596 7340
17473 1209 1918
17474 9038 5776
17475 5119 556 
17476 377  9069
17477 1583 4957
17478 9046 3655
17479 41   7851
17480 6837 4019
17481 7148 5263
17482 4261 1855
17483 8961 6316
17484 7826 9240
17485 3791 2878
17486 1181 2474
17487 690  7696
17488 7612 1666
17489 9875 8406
17490 1901 2463
17491 8864 4321
17492 7214 1529
17493 8631 7254
17494 5920 8941
17495 1694 6027
17496 2785 7464
17497 2629 2351
17498 9600 8380
17499 584  452 
17500 8136 8729
17501 718  9264
17502 4728 4123
17503 3073 8827
17504 9787 5000
17505 1635 3663
17506 1419 5502
17507 9442 8146
17508 2417 1323
17509 8296 9811
17510 2552 5153
17511 6259 3361
17512 515  1189
17513 5074 2703
17514 9275 2607
17515 7706 4608
17516 704  1605
17517 8245 3568
17518 2584 9450
17519 7415 4926
17520 8055 3631
17521 155  5256
17522 6207 61  
17523 8318 7331
17524 8612 4409
17525 9330 82  
17526 7076 3521
17527 5923 3320
17528 5605 7346
17529 29   4374
17530 9956 1965
17531 1974 1373
17532 1877 2574
17533 822  5176
17534 2191 8714
17535 9390 1321
17536 6755 1701
17537 3309 9785
17538 618  3899
17539 4655 1235
17540 7176 7001
17541 6325 6169
17542 431  1059
17543 9059 722 
17544 1169 1155
17545 6891 3332
17546 3357 8204
17547 9664 9865
17548 9128 7343
17549 6606 5124
17550 2230 5553
17551 1175 4936
17552 414  3319
17553 5029 786 
17554 4737 4755
17555 5720 9688
17556 3606 4637
17557 7399 5962
17558 9580 3892
17559 5327 3522
17560 1392 1220
17561 3252 3540
17562 4894 3543
17563 5393 4537
17564 4492 6942
17565 5827 2151
17566 5387 7506
17567 3899 980 
17568 1518 9442
17569 9636 1835
17570 3918 5131
17571 6063 7949
17572 8570 8142
17573 4042 5970
17574 235  87  
17575 5187 9362
17576 5822 3231
17577 3172 4628
17578 5008 5413
17579 1402 3540
17580 3207 7116
17581 3468 8199
17582 8180 2059
17583 132  6381
17584 531  8461
17585 4381 1798
17586 1853 3804
17587 2931 3177
17588 7538 2374
17589 3820 6716
17590 2905 5290
17591 6545 5471
17592 5888 561 
17593 9981 1069
17594 9149 9325
17595 5447 3562
17596 5135 3364
17597 4027 4155
17598 7691 617 
17599 9443 6931
17600 3208 5392
17601 1552 77  
17602 2290 4746
17603 5143 3039
17604 1566 6286
17605 3946 9894
17606 4399 9194
17607 2989 9051
17608 8747 5818
17609 6204 4569
17610 7187 9163
17611 1538 6919
17612 8305 6974
17613 4462 2520
17614 5756 2285
17615 6373 2140
17616 7208 6075
17617 1264 9607
17618 6176 1440
17619 6062 775 
17620 6035 8101
17621 2975 3894
17622 5054 298 
17623 7756 4156
17624 5069 6723
17625 7512 7036
17626 5112 4601
17627 5438 3871
17628 1301 5848
17629 8775 2965
17630 7211 6692
17631 9185 3951
17632 5319 2245
17633 3305 5457
17634 4672 3748
17635 3267 6244
17636 7508 2766
17637 4564 5198
17638 3481 9337
17639 3066 3806
17640 2728 6568
17641 2325 9413
17642 938  1431
17643 2482 9310
17644 9160 7629
17645 9714 5191
17646 886  7155
17647 4857 9984
17648 5485 8049
17649 5892 9044
17650 5897 6982
17651 8659 8713
17652 795  4725
17653 1414 9226
17654 6721 7268
17655 4510 156 
17656 9839 9501
17657 4258 7052
17658 376  8940
17659 2112 7060
17660 7810 9899
17661 8132 2382
17662 5106 2660
17663 4928 6672
17664 6999 4364
17665 1160 6011
17666 3548 3589
17667 6377 1921
17668 2666 4117
17669 8619 3169
17670 5686 103 
17671 5507 6183
17672 9561 6632
17673 5645 6133
17674 2985 8143
17675 1262 5421
17676 4562 2727
17677 9043 8962
17678 9864 9906
17679 270  9717
17680 5700 4542
17681 9957 3460
17682 3033 9067
17683 8637 711 
17684 9291 1378
17685 590  4611
17686 5053 2393
17687 481  2531
17688 8370 1040
17689 8518 8180
17690 9537 3772
17691 9186 9573
17692 2118 1967
17693 7137 9716
17694 5613 8011
17695 3218 2914
17696 9122 3137
17697 7317 7903
17698 5237 3007
17699 9784 3202
17700 3758 7956
17701 7210 957 
17702 522  8927
17703 6882 9619
17704 7896 2844
17705 6728 6764
17706 9715 1627
17707 2368 8689
17708 1897 6383
17709 9631 1486
17710 2247 9176
17711 3614 829 
17712 7452 3176
17713 2757 2836
17714 9658 5700
17715 5998 2659
17716 9716 8566
17717 3599 3284
17718 5304 998 
17719 1200 1352
17720 8589 3429
17721 6790 1621
17722 7968 1425
17723 5802 8797
17724 4061 4286
17725 937  8707
17726 9272 1891
17727 344  9857
17728 4895 9973
17729 6031 1978
17730 2666 8734
17731 6901 9686
17732 9863 1124
17733 4343 9187
17734 1235 8322
17735 3584 7266
17736 1394 490 
17737 3063 5145
17738 456  7524
17739 5147 1817
17740 3967 7792
17741 2248 3658
17742 2646 586 
17743 3980 4483
17744 2328 9372
17745 8872 2357
17746 8058 5073
17747 1365 2130
17748 4103 8006
17749 7599 6005
17750 6151 6413
17751 4577 4904
17752 7402 5141
17753 7641 1256
17754 4944 760 
17755 4562 6219
17756 7125 4539
17757 7135 1454
17758 3253 2527
17759 2863 3111
17760 9037 7286
17761 4728 7549
17762 3650 8137
17763 509  1875
17764 8753 6474
17765 4857 6495
17766 7190 7634
17767 6998 392 
17768 975  2483
17769 4628 1271
17770 3347 3568
17771 1810 4632
17772 9904 413 
17773 7410 8548
17774 8593 5001
17775 5734 8198
17776 4021 5826
17777 3867 7687
17778 8432 827 
17779 8691 2498
17780 5692 961 
17781 5830 6484
17782 6759 2812
17783 8302 879 
17784 5076 9830
17785 5979 1448
17786 7896 1854
17787 2368 3886
17788 1933 9402
17789 1635 1043
17790 2930 1180
17791 2054 6806
17792 6050 8152
17793 5149 5905
17794 2816 3865
17795 8319 6051
17796 8634 1889
17797 9084 2077
17798 1946 2375
17799 2472 5156
17800 7453 3174
17801 1540 1031
17802 5253 5254
17803 5995 2464
17804 633  6528
17805 5245 7597
17806 3326 2169
17807 197  5538
17808 7769 6774
17809 5834 3938
17810 1447 7510
17811 8985 5398
17812 4501 8152
17813 4668 7295
17814 2649 1483
17815 1163 8746
17816 6294 1229
17817 2766 8589
17818 2169 3659
17819 9491 5297
17820 9949 9781
17821 1123 5525
17822 804  25  
17823 7196 8243
17824 375  1380
17825 2116 3049
17826 9413 8697
17827 5279 4662
17828 7260 1440
17829 3703 4659
17830 8700 8489
17831 3003 9584
17832 7456 5189
17833 6367 7170
17834 6459 8287
17835 9206 9889
17836 4479 3221
17837 2546 643 
17838 7031 5788
17839 1522 4293
17840 8411 6349
17841 798  5983
17842 1433 8513
17843 3436 2155
17844 61   1401
17845 6239 7381
17846 9139 3989
17847 7756 9346
17848 4006 3879
17849 4178 8537
17850 7757 6052
17851 3841 1232
17852 1564 5620
17853 6607 9746
17854 5968 5076
17855 1724 6279
17856 89   5193
17857 5874 9290
17858 2443 8625
17859 3831 4016
17860 3296 7088
17861 4148 6031
17862 5517 6516
17863 9878 4697
17864 2517 2563
17865 2650 4424
17866 5032 6694
17867 7740 5561
17868 5439 732 
17869 7458 1991
17870 2983 8686
17871 2760 6039
17872 4114 5762
17873 2749 2857
17874 4533 1501
17875 5208 781 
17876 3345 3319
17877 6536 5551
17878 9774 5514
17879 1639 6714
17880 8596 5461
17881 9663 4005
17882 5492 4673
17883 3579 3884
17884 6504 2346
17885 88   4730
17886 2750 3388
17887 8176 8718
17888 4653 7562
17889 2234 371 
17890 1293 5248
17891 2431 4477
17892 9434 6971
17893 8326 2529
17894 8998 7839
17895 9433 8469
17896 8587 716 
17897 7921 8367
17898 968  8067
17899 3010 8905
17900 276  9621
17901 8418 8863
17902 2612 5533
17903 9257 8400
17904 5350 6679
17905 568  6828
17906 5421 8019
17907 601  8887
17908 1731 4297
17909 6692 3307
17910 8028 3556
17911 4711 5306
17912 3051 3145
17913 7416 856 
17914 7935 2327
17915 8233 673 
17916 5565 660 
17917 5910 3227
17918 9651 7834
17919 2677 4643
17920 6693 7247
17921 797  4995
17922 9564 235 
17923 6598 5404
17924 582  6954
17925 6033 1921
17926 6078 5288
17927 356  2303
17928 9427 658 
17929 561  1418
17930 6944 7217
17931 1747 4951
17932 7677 2795
17933 9423 1380
17934 4101 1535
17935 9867 2141
17936 5272 8153
17937 7581 162 
17938 9034 3176
17939 6635 9479
17940 889  7485
17941 9054 4686
17942 5932 2855
17943 3317 930 
17944 8562 2807
17945 9071 8812
17946 4648 7596
17947 7567 4857
17948 757  7549
17949 9439 8086
17950 1676 2047
17951 317  1424
17952 5189 9348
17953 4594 9155
17954 1223 6409
17955 152  7859
17956 197  3940
17957 5060 7497
17958 2795 3112
17959 934  1599
17960 1866 7663
17961 6789 7508
17962 6274 7001
17963 2031 8659
17964 62   6714
17965 3423 5351
17966 9904 3450
17967 9902 6556
17968 4665 9285
17969 8382 439 
17970 1111 1908
17971 2584 1923
17972 6682 3684
17973 1544 5403
17974 7326 524 
17975 177  9959
17976 172  1489
17977 1193 6841
17978 1527 7647
17979 400  9084
17980 2106 4676
17981 5354 7714
17982 6089 2817
17983 3194 2362
17984 4706 9310
17985 5541 3311
17986 7960 9677
17987 5081 9992
17988 9273 8477
17989 1170 2508
17990 1661 1280
17991 4836 9305
17992 3489 3915
17993 8562 1312
17994 52   3641
17995 3188 917 
17996 9691 6803
17997 6710 2322
17998 5679 9255
17999 3040 7996
18000 1484 2657
18001 163  8703
18002 6017 8755
18003 9841 7532
18004 9265 7729
18005 8771 5027
18006 3093 4096
18007 5797 1515
18008 7972 7464
18009 2404 8112
18010 3188 1353
18011 1823 5591
18012 5817 3734
18013 351  2128
18014 9896 7   
18015 1314 8953
18016 1813 7694
18017 2674 4205
18018 1303 6001
18019 8311 2934
18020 8030 9905
18021 6733 6059
18022 5754 4660
18023 507  5784
18024 9487 6430
18025 3368 8756
18026 288  8127
18027 4175 7634
18028 6715 1993
18029 3944 9944
18030 1270 753 
18031 5226 9441
18032 3650 9304
18033 1671 5402
18034 3473 2815
18035 1245 7035
18036 8895 6853
18037 7606 5231
18038 2605 7173
18039 9671 5195
18040 9093 6882
18041 367  4955
18042 1825 657 
18043 7107 4021
18044 6721 1810
18045 1342 4860
18046 3522 4813
18047 2444 3524
18048 1736 6594
18049 4904 3841
18050 9885 704 
18051 9778 5683
18052 6547 7923
18053 1003 3458
18054 10   4847
18055 8574 2896
18056 7180 9418
18057 3171 3857
18058 7474 22  
18059 7677 8360
18060 6160 6692
18061 4286 852 
18062 425  2115
18063 516  3374
18064 4438 883 
18065 1606 8098
18066 4405 3846
18067 6808 4395
18068 1051 8515
18069 5624 4606
18070 3432 8171
18071 7575 3106
18072 763  7370
18073 6258 6822
18074 7854 7138
18075 4741 418 
18076 732  1446
18077 7991 8985
18078 3463 468 
18079 3023 6737
18080 3415 2387
18081 222  384 
18082 1184 3664
18083 4950 8358
18084 3469 8201
18085 4930 5415
18086 6307 3552
18087 4659 8464
18088 6349 6980
18089 9483 1427
18090 3592 695 
18091 9131 5541
18092 2990 1306
18093 9758 2218
18094 661  4331
18095 1805 7075
18096 6497 7593
18097 5500 3917
18098 321  6314
18099 277  5588
18100 9929 4590
18101 9918 6414
18102 4353 4925
18103 2112 8616
18104 4942 2588
18105 9484 7266
18106 729  8753
18107 1852 9213
18108 1351 6043
18109 2746 2693
18110 8766 7082
18111 2801 2678
18112 1749 4645
18113 2278 4346
18114 9969 4452
18115 1902 1701
18116 8032 5838
18117 4694 6319
18118 5751 3400
18119 5582 7919
18120 1375 1192
18121 3758 1563
18122 5940 871 
18123 9549 8167
18124 1957 4374
18125 95   8478
18126 6115 475 
18127 2995 6673
18128 5715 9007
18129 141  2108
18130 5391 8039
18131 1991 3228
18132 8883 5866
18133 3672 4797
18134 8532 7019
18135 5953 5298
18136 8100 2594
18137 9781 5708
18138 2775 5613
18139 9102 8375
18140 8590 406 
18141 3818 706 
18142 172  6145
18143 3737 8595
18144 8128 5106
18145 7143 4502
18146 7329 2059
18147 7254 3316
18148 8788 3993
18149 65   6733
18150 119  1443
18151 1740 3871
18152 9737 1936
18153 3583 2360
18154 2575 3079
18155 2871 9359
18156 7206 4553
18157 6272 5550
18158 5341 3914
18159 5604 2444
18160 2129 5497
18161 5020 7449
18162 1754 7040
18163 5895 1446
18164 6456 5829
18165 3234 3661
18166 994  9187
18167 8635 965 
18168 2870 4109
18169 1461 8414
18170 4354 8896
18171 8142 7489
18172 5861 3162
18173 6618 2660
18174 9759 3796
18175 3502 8916
18176 8496 9676
18177 5382 9779
18178 6661 3473
18179 1875 154 
18180 5340 8361
18181 7605 2397
18182 5727 922 
18183 4073 2396
18184 2109 1572
18185 2056 1712
18186 6922 6979
18187 4060 3705
18188 6543 2629
18189 4127 3082
18190 7616 2361
18191 789  7233
18192 2320 1757
18193 5980 8962
18194 2416 4442
18195 7915 3660
18196 7693 3328
18197 3580 6236
18198 1622 6089
18199 1509 2688
18200 3228 5208
18201 8455 2293
18202 9345 8873
18203 5515 1307
18204 206  4245
18205 8563 543 
18206 1036 6465
18207 4322 277 
18208 4126 6008
18209 9919 3378
18210 6256 6627
18211 5484 8025
18212 3312 2690
18213 7518 1361
18214 1226 7630
18215 3891 940 
18216 4958 7813
18217 9789 4590
18218 5612 1505
18219 3535 6553
18220 5487 9268
18221 6199 5973
18222 4971 5204
18223 3621 5429
18224 8828 1400
18225 4327 6017
18226 2785 8666
18227 6539 7157
18228 6735 4496
18229 9782 6014
18230 5129 4743
18231 7473 4367
18232 8763 5941
18233 2246 5027
18234 3295 2561
18235 483  9438
18236 1394 8262
18237 4988 8730
18238 6741 751 
18239 2854 1863
18240 8527 619 
18241 6986 4993
18242 4740 3683
18243 4057 169 
18244 4240 529 
18245 3854 6802
18246 4894 9206
18247 7646 8977
18248 7050 5966
18249 7696 2611
18250 9988 2949
18251 1414 4013
18252 8135 4209
18253 8074 9434
18254 3213 1972
18255 4717 8580
18256 4925 3638
18257 7344 9398
18258 849  2711
18259 3587 3869
18260 3948 8252
18261 9518 8759
18262 3736 8350
18263 8470 6807
18264 3606 1943
18265 978  4248
18266 3519 8261
18267 3018 6854
18268 9459 2062
18269 9896 7166
18270 3869 900 
18271 2089 8083
18272 6014 8391
18273 2838 1135
18274 7285 3327
18275 1506 8918
18276 4773 1237
18277 2260 7489
18278 8125 6858
18279 5206 4416
18280 5471 4900
18281 1211 6770
18282 7731 6971
18283 3488 1585
18284 1129 4370
18285 7199 5694
18286 9202 5942
18287 3873 6555
18288 8910 6183
18289 3587 2709
18290 8994 7383
18291 5631 4981
18292 3469 2113
18293 2627 3170
18294 9327 4578
18295 2061 2832
18296 5920 9095
18297 350  2282
18298 3100 3623
18299 8084 5712
18300 9562 5428
18301 1965 334 
18302 5501 2186
18303 563  1592
18304 3259 2859
18305 4650 2388
18306 4117 6769
18307 545  7297
18308 8830 6178
18309 846  3128
18310 6112 8780
18311 3513 6176
18312 6684 4026
18313 7330 8261
18314 8567 3053
18315 4234 3493
18316 5826 7261
18317 5025 1430
18318 9819 9803
18319 6002 649 
18320 9984 2775
18321 9068 5152
18322 5469 8596
18323 9168 4057
18324 637  8132
18325 6897 336 
18326 7047 9897
18327 984  381 
18328 4773 4816
18329 6673 8135
18330 4515 5751
18331 8839 883 
18332 288  3467
18333 7565 840 
18334 8332 395 
18335 9243 6303
18336 3301 9448
18337 5480 5048
18338 2423 101 
18339 3790 5   
18340 766  361 
18341 8707 894 
18342 42   853 
18343 4415 3608
18344 5616 6286
18345 1725 2575
18346 8306 5834
18347 982  9950
18348 4039 2883
18349 2272 8891
18350 7604 5528
18351 4084 3584
18352 5804 5848
18353 5701 8878
18354 7680 2475
18355 1737 1786
18356 4444 3634
18357 9347 2840
18358 4848 2462
18359 9061 6631
18360 177  5652
18361 1697 6501
18362 25   6113
18363 2937 8348
18364 3590 7461
18365 1051 2839
18366 4466 1848
18367 1960 9686
18368 5662 8766
18369 7945 7525
18370 7600 3315
18371 1819 7203
18372 2634 6858
18373 1045 6367
18374 6226 5151
18375 7074 6192
18376 2817 1368
18377 8240 7486
18378 6110 1399
18379 870  8800
18380 4486 4373
18381 9031 4728
18382 3697 7732
18383 5584 688 
18384 8778 9841
18385 4971 3010
18386 1942 4964
18387 4592 9038
18388 730  432 
18389 6521 1173
18390 3416 5355
18391 3579 3933
18392 7476 4729
18393 7939 5184
18394 3827 672 
18395 7784 4228
18396 9366 962 
18397 6774 3442
18398 8403 5024
18399 1852 5449
18400 6005 62  
18401 6403 8434
18402 714  1652
18403 6932 5030
18404 9148 952 
18405 1221 6878
18406 8033 6874
18407 4883 3514
18408 8997 2553
18409 3288 8171
18410 517  7069
18411 3211 7494
18412 6239 4769
18413 1790 5437
18414 1908 6729
18415 8433 6075
18416 2762 2757
18417 8384 4954
18418 188  1207
18419 3741 5727
18420 9891 3965
18421 4312 9045
18422 861  6845
18423 3494 3995
18424 1861 3581
18425 5453 5878
18426 6341 8873
18427 1798 1802
18428 7284 2141
18429 9574 7761
18430 3456 9794
18431 2487 2449
18432 2291 3600
18433 8395 6044
18434 9136 8610
18435 4215 7424
18436 7093 2610
18437 2294 4375
18438 4104 9378
18439 8665 50  
18440 7833 152 
18441 3402 7343
18442 9596 47  
18443 7941 9271
18444 9848 3880
18445 6684 9168
18446 3890 7822
18447 4155 6579
18448 3995 6448
18449 835  3153
18450 1921 4094
18451 9689 3753
18452 8196 5963
18453 7632 5239
18454 1440 4240
18455 8769 2780
18456 1808 2063
18457 5658 2961
18458 2968 7543
18459 9101 7690
18460 8939 5197
18461 1501 4635
18462 4124 4241
18463 8239 8375
18464 3383 6071
18465 3145 4307
18466 3313 4693
18467 8961 3370
18468 2500 8254
18469 9386 5775
18470 6612 8120
18471 2652 5194
18472 9226 9968
18473 6490 2240
18474 2854 2841
18475 6071 7003
18476 4854 5940
18477 8077 782 
18478 6113 6938
18479 7386 4497
18480 2209 2013
18481 9574 1243
18482 7450 6927
18483 468  204 
18484 1626 4865
18485 10   5840
18486 9961 4897
18487 7961 506 
18488 4223 5708
18489 9178 1485
18490 4279 3047
18491 8204 1430
18492 5683 6293
18493 4986 4544
18494 7544 4259
18495 4805 1748
18496 8100 6742
18497 4205 8319
18498 225  7870
18499 810  6425
18500 7510 2606
18501 296  4010
18502 7012 4110
18503 8211 1451
18504 4805 1064
18505 898  5842
18506 7525 4094
18507 5863 4154
18508 9225 4316
18509 228  5014
18510 6040 3298
18511 3087 3396
18512 7174 1040
18513 7257 638 
18514 148  1186
18515 9020 8950
18516 2155 9719
18517 8471 8910
18518 7742 4650
18519 826  7633
18520 3064 5068
18521 8970 5468
18522 3487 476 
18523 7434 939 
18524 1818 9567
18525 7152 1050
18526 4267 2671
18527 7546 3398
18528 4384 9690
18529 2847 8452
18530 493  4591
18531 8537 1676
18532 7131 9412
18533 8446 6474
18534 2960 3678
18535 7638 7130
18536 6208 9224
18537 2798 2327
18538 2701 7939
18539 2802 8189
18540 7161 5346
18541 6485 5229
18542 7242 6980
18543 4303 5780
18544 7606 3633
18545 6604 1113
18546 6028 1764
18547 5896 1102
18548 2425 7005
18549 3511 3088
18550 7079 4353
18551 4463 4511
18552 6855 4830
18553 9207 1071
18554 6226 1589
18555 1008 536 
18556 6034 1547
18557 5563 1781
18558 6199 5015
18559 7104 2066
18560 5330 1151
18561 8156 2183
18562 1352 2148
18563 9573 2436
18564 8120 6973
18565 3452 8766
18566 2443 5348
18567 315  3851
18568 1208 1682
18569 2405 3600
18570 8671 3634
18571 6074 4523
18572 2181 5732
18573 8280 2152
18574 6807 6324
18575 4629 6436
18576 4833 2750
18577 8075 5543
18578 3095 4517
18579 4630 8858
18580 1142 7027
18581 8781 9041
18582 1736 8699
18583 7952 4132
18584 8402 548 
18585 5378 7905
18586 5125 6391
18587 6239 75  
18588 6297 9373
18589 6681 6398
18590 6905 2943
18591 4792 601 
18592 9755 3793
18593 7027 873 
18594 3084 9957
18595 5933 5351
18596 2844 161 
18597 1449 4562
18598 4353 1213
18599 9777 4251
18600 8057 2462
18601 4688 2747
18602 1269 998 
18603 8608 5438
18604 5828 5345
18605 9320 1140
18606 3938 6711
18607 1786 4894
18608 3458 8355
18609 8107 6225
18610 2431 8334
18611 4383 2321
18612 1027 6824
18613 1037 1319
18614 7026 1574
18615 6631 917 
18616 6465 9252
18617 3055 9546
18618 9811 9782
18619 4883 2879
18620 9261 7169
18621 8649 8885
18622 5867 7071
18623 5448 8822
18624 7365 986 
18625 9255 191 
18626 2705 3737
18627 4907 4358
18628 8837 1822
18629 2782 2988
18630 2120 9219
18631 2968 80  
18632 1531 5702
18633 3515 5521
18634 5201 5807
18635 1316 5513
18636 7353 6053
18637 4925 8437
18638 6446 9336
18639 5319 528 
18640 6237 6885
18641 5884 3526
18642 7815 2944
18643 57   3858
18644 4721 8897
18645 6991 1244
18646 5835 1179
18647 6592 7812
18648 749  4086
18649 7847 4948
18650 7804 2340
18651 7906 9471
18652 3720 8170
18653 6777 5270
18654 211  8095
18655 7530 2507
18656 1653 2727
18657 6432 5912
18658 5554 6641
18659 7643 1150
18660 296  1936
18661 7658 5462
18662 7232 7522
18663 1665 2424
18664 6477 4900
18665 5640 9440
18666 5192 2549
18667 4415 2906
18668 3456 8556
18669 4067 2687
18670 4062 8604
18671 9063 4125
18672 846  758 
18673 2005 7706
18674 3669 860 
18675 6574 9325
18676 1870 3136
18677 8827 2668
18678 3689 3033
18679 5263 2357
18680 5755 9318
18681 9875 9295
18682 5709 6962
18683 2056 6642
18684 2205 91  
18685 8385 4044
18686 5164 8005
18687 7328 7990
18688 3925 4181
18689 332  6496
18690 547  8961
18691 5380 6412
18692 1841 4497
18693 3385 5648
18694 6648 7496
18695 1508 8499
18696 3921 1739
18697 4135 1989
18698 379  7272
18699 4563 4415
18700 937  3273
18701 8015 4104
18702 9539 6428
18703 9406 1145
18704 8232 3727
18705 9236 4525
18706 7043 482 
18707 8784 4191
18708 1979 2606
18709 3573 343 
18710 1402 9576
18711 6932 2509
18712 6463 7964
18713 2685 2748
18714 353  4178
18715 3770 9994
18716 5890 6781
18717 6751 3463
18718 1335 7857
18719 8539 6814
18720 3743 8421
18721 930  4288
18722 6967 7841
18723 1427 9280
18724 3969 2114
18725 9326 1893
18726 9987 9172
18727 9757 6389
18728 2011 3891
18729 1299 3380
18730 568  2858
18731 385  9293
18732 7212 5029
18733 4564 4701
18734 4999 3657
18735 750  5784
18736 2895 4358
18737 7865 2382
18738 8814 1269
18739 3993 6120
18740 3122 1182
18741 766  6866
18742 7679 4070
18743 835  3543
18744 7308 3194
18745 3449 8556
18746 2829 9884
18747 1450 3540
18748 4957 8686
18749 9712 9132
18750 174  4106
18751 8237 5175
18752 8943 3417
18753 8997 7534
18754 5021 8856
18755 5332 3213
18756 2375 8590
18757 7093 6671
18758 6403 7262
18759 820  2109
18760 7078 1040
18761 4990 9773
18762 9483 7963
18763 9055 6848
18764 8997 7330
18765 6099 5055
18766 3273 9824
18767 8711 5465
18768 406  3923
18769 3098 4868
18770 1530 711 
18771 4921 8419
18772 2893 7469
18773 2141 6152
18774 833  8667
18775 8225 147 
18776 2259 9537
18777 6542 2045
18778 3515 155 
18779 9023 4899
18780 8321 9889
18781 5964 2838
18782 9433 3321
18783 8326 4341
18784 874  5199
18785 2269 2596
18786 9325 9151
18787 6605 3626
18788 4540 767 
18789 9097 7394
18790 2622 3316
18791 184  8908
18792 3506 3922
18793 539  9468
18794 3111 233 
18795 1438 1243
18796 5260 8432
18797 8442 6288
18798 482  4869
18799 9396 4399
18800 8102 6955
18801 3581 3957
18802 179  5004
18803 6171 841 
18804 2529 6324
18805 6402 7004
18806 7005 9651
18807 146  5893
18808 6753 6958
18809 5664 3079
18810 2286 4023
18811 2829 6965
18812 569  9930
18813 9270 3348
18814 4762 1486
18815 8144 1194
18816 4317 566 
18817 4243 8344
18818 4946 7410
18819 591  3091
18820 3059 1866
18821 8704 7304
18822 3828 4751
18823 9617 3309
18824 4461 9528
18825 85   1664
18826 3782 7472
18827 4208 4076
18828 1968 9803
18829 2162 1708
18830 2168 7492
18831 2065 3541
18832 5313 5406
18833 6637 138 
18834 8903 4020
18835 5357 4790
18836 1343 7718
18837 4869 1381
18838 8733 3816
18839 2472 3732
18840 8086 2222
18841 6422 1737
18842 127  5485
18843 1790 5936
18844 5578 5044
18845 7054 6382
18846 3874 8689
18847 7993 5354
18848 5186 3256
18849 5427 2406
18850 6102 4598
18851 464  8222
18852 4729 1836
18853 7011 7389
18854 6208 2557
18855 4041 3041
18856 6893 5435
18857 4970 9879
18858 2093 1270
18859 9586 1007
18860 3534 8836
18861 8933 9433
18862 9834 1333
18863 3851 4129
18864 2018 1125
18865 2138 5804
18866 811  9502
18867 5017 8710
18868 8312 7265
18869 8059 8104
18870 3609 885 
18871 7523 6948
18872 7833 6378
18873 2717 5788
18874 4562 1955
18875 1553 1226
18876 8494 6482
18877 8415 2297
18878 596  2354
18879 6511 6864
18880 1204 461 
18881 1460 9991
18882 9351 5541
18883 4732 5652
18884 3928 7734
18885 9126 304 
18886 9191 6389
18887 473  5151
18888 7610 7581
18889 3514 2563
18890 5660 5218
18891 4360 4828
18892 9656 2230
18893 8292 9780
18894 1102 2565
18895 1614 8475
18896 7972 2042
18897 8465 118 
18898 6759 3220
18899 53   7546
18900 4101 9242
18901 3556 226 
18902 8707 9461
18903 6861 8391
18904 6384 0   
18905 2812 6880
18906 271  7086
18907 813  3371
18908 9890 1510
18909 5802 4876
18910 8473 3335
18911 100  5484
18912 8719 4210
18913 6757 6486
18914 4108 9373
18915 4951 7175
18916 7740 9579
18917 6161 3946
18918 7352 3749
18919 7990 3056
18920 8066 5888
18921 793  5153
18922 5252 4099
18923 919  781 
18924 8153 1578
18925 9307 1943
18926 2778 1557
18927 7184 3813
18928 6910 6229
18929 4685 2200
18930 6759 6779
18931 6570 5613
18932 7632 3811
18933 5291 2360
18934 9862 8977
18935 4477 8616
18936 8225 2263
18937 6761 712 
18938 7953 192 
18939 9602 4953
18940 535  4216
18941 2340 6153
18942 4455 438 
18943 6939 3297
18944 69   6955
18945 6782 771 
18946 1199 1887
18947 9839 6785
18948 3394 6029
18949 6005 3147
18950 9268 3077
18951 7293 9390
18952 6526 3320
18953 8646 2725
18954 1638 3812
18955 7152 7818
18956 2768 2180
18957 590  6841
18958 2367 5173
18959 6701 6113
18960 9007 8771
18961 6328 7622
18962 1670 1141
18963 7927 4265
18964 6690 8352
18965 4724 48  
18966 3264 9953
18967 7415 3205
18968 4028 4157
18969 2844 2285
18970 5414 7079
18971 1222 4490
18972 4265 5853
18973 7933 611 
18974 3262 82  
18975 2157 6549
18976 9058 3482
18977 4521 5312
18978 6180 9350
18979 3173 4357
18980 4921 5243
18981 3869 6536
18982 8969 9000
18983 7624 5584
18984 8085 3373
18985 8087 5316
18986 3086 7196
18987 5714 1924
18988 2240 6758
18989 8819 5295
18990 7416 7224
18991 1688 8823
18992 257  6890
18993 8510 435 
18994 8151 603 
18995 1962 9718
18996 7143 7700
18997 7601 4659
18998 6918 5287
18999 4920 4686
19000 5894 8977
19001 7120 5246
19002 1104 2115
19003 6526 8503
19004 8170 8472
19005 1923 1020
19006 7386 8401
19007 7266 3470
19008 1051 169 
19009 3326 3047
19010 4422 7411
19011 1767 5806
19012 7156 4190
19013 9051 6477
19014 5436 7412
19015 1961 9766
19016 4511 1789
19017 2528 5902
19018 2961 7609
19019 4064 8264
19020 9151 9210
19021 4689 181 
19022 675  8850
19023 530  944 
19024 2780 4487
19025 6143 2271
19026 1706 4530
19027 9020 7502
19028 4314 1873
19029 8885 843 
19030 3755 2415
19031 164  1280
19032 3336 2550
19033 1790 5229
19034 9091 3990
19035 5733 39  
19036 3989 9757
19037 2805 6141
19038 841  9559
19039 1371 173 
19040 3086 4876
19041 9711 806 
19042 1844 2248
19043 1807 6579
19044 1700 9099
19045 5960 6080
19046 8094 9930
19047 5356 8681
19048 1599 3403
19049 4708 3379
19050 2969 5429
19051 6688 7483
19052 8487 3566
19053 1433 9312
19054 5896 176 
19055 163  5060
19056 4311 6777
19057 4429 7469
19058 2240 9752
19059 5157 1997
19060 4549 9075
19061 7047 3685
19062 4731 8805
19063 4960 6040
19064 8903 4697
19065 4737 488 
19066 7102 1706
19067 3851 1560
19068 9419 4743
19069 5400 9254
19070 8956 4092
19071 9422 7981
19072 6058 3672
19073 3482 2775
19074 2637 3023
19075 4798 2216
19076 3719 6559
19077 207  8944
19078 863  5962
19079 4986 535 
19080 4812 2667
19081 2002 203 
19082 9302 9950
19083 5985 6297
19084 5217 6391
19085 5550 9523
19086 6187 3167
19087 7278 1113
19088 3892 7938
19089 2565 8626
19090 3584 3627
19091 5398 3507
19092 3428 2677
19093 8440 9289
19094 5776 7402
19095 6649 895 
19096 3995 9061
19097 961  3687
19098 26   2099
19099 1611 3070
19100 8638 7531
19101 1997 3282
19102 2027 4243
19103 6633 2401
19104 6511 8697
19105 5084 3912
19106 4699 8239
19107 8184 752 
19108 9754 3625
19109 7332 5716
19110 7599 5150
19111 9705 6281
19112 9045 9668
19113 2977 883 
19114 4695 9607
19115 9636 7584
19116 1459 7871
19117 2495 1419
19118 5783 9008
19119 1970 5207
19120 2830 946 
19121 3790 4288
19122 9489 4972
19123 6536 4155
19124 4101 2718
19125 1054 7627
19126 4003 2695
19127 3817 5804
19128 3756 6402
19129 4158 5071
19130 1992 2476
19131 7900 8204
19132 1508 2749
19133 4523 1831
19134 8104 3628
19135 4322 247 
19136 9345 5949
19137 4802 5188
19138 6982 7022
19139 1676 6118
19140 3713 7794
19141 845  6898
19142 6880 5215
19143 2437 2171
19144 1384 1296
19145 8263 3394
19146 7517 2448
19147 6767 7190
19148 8043 644 
19149 5531 9973
19150 3924 4906
19151 3420 161 
19152 4262 9489
19153 2984 7429
19154 1916 3193
19155 2613 7759
19156 3706 3329
19157 2986 7049
19158 4561 51  
19159 1734 252 
19160 8591 3811
19161 1556 8587
19162 1001 8567
19163 667  3243
19164 399  615 
19165 5179 5153
19166 9002 5476
19167 2039 2484
19168 2948 5047
19169 2583 2464
19170 5170 616 
19171 1404 5721
19172 6379 2727
19173 8277 6484
19174 9029 5161
19175 3261 5404
19176 5094 7167
19177 2365 8481
19178 4833 1127
19179 3209 1619
19180 7618 4253
19181 5126 5138
19182 8947 4507
19183 5820 4835
19184 9246 3935
19185 769  2471
19186 7272 9348
19187 1432 5396
19188 1236 4378
19189 9592 7278
19190 1035 7482
19191 9703 2117
19192 5252 5497
19193 5331 9526
19194 9315 3653
19195 8956 849 
19196 6469 9964
19197 6693 4800
19198 3370 8823
19199 743  5684
19200 1723 4122
19201 8747 2443
19202 6904 9244
19203 1237 427 
19204 9764 7416
19205 4657 4880
19206 8267 395 
19207 6235 7373
19208 3734 9683
19209 1544 5936
19210 4989 1328
19211 4160 5174
19212 1351 3957
19213 5900 8417
19214 1041 5098
19215 9497 1379
19216 9423 741 
19217 9035 3024
19218 3731 8383
19219 6901 698 
19220 4079 216 
19221 250  8416
19222 5094 131 
19223 1567 4512
19224 8001 5972
19225 9005 2498
19226 1421 7321
19227 2597 835 
19228 7982 6987
19229 160  7342
19230 3710 585 
19231 4507 8271
19232 3826 7003
19233 8550 5152
19234 2800 9601
19235 8269 6673
19236 9725 6865
19237 7324 9739
19238 1497 8836
19239 6130 6104
19240 9641 553 
19241 7888 4794
19242 261  9578
19243 4751 9561
19244 8241 1706
19245 6870 3820
19246 6238 2954
19247 82   8926
19248 5203 9569
19249 7154 6122
19250 1524 7949
19251 3725 3386
19252 8588 3618
19253 6428 2372
19254 1324 1191
19255 1929 5136
19256 9738 4795
19257 718  4469
19258 69   438 
19259 4792 5558
19260 4080 1798
19261 6005 1526
19262 3690 6221
19263 6063 446 
19264 4510 4904
19265 9322 3471
19266 1506 5551
19267 3237 1436
19268 8614 5523
19269 8043 4260
19270 1123 2413
19271 8302 7142
19272 3762 700 
19273 5213 9028
19274 9855 885 
19275 5090 4517
19276 3437 8309
19277 8310 21  
19278 4383 2565
19279 6396 2435
19280 109  4358
19281 1195 4375
19282 8183 7235
19283 8098 268 
19284 4478 2484
19285 7329 6286
19286 7913 1392
19287 8306 1190
19288 2027 7096
19289 766  8946
19290 2690 1060
19291 4128 2492
19292 6848 5024
19293 6487 3519
19294 3748 1331
19295 7520 965 
19296 1819 9387
19297 6331 5451
19298 4857 5743
19299 8410 4326
19300 7814 3612
19301 9306 6397
19302 9668 6628
19303 5285 7027
19304 7053 798 
19305 9816 1993
19306 6351 2275
19307 8077 7259
19308 5134 3148
19309 8958 9938
19310 2346 4037
19311 6881 8982
19312 213  5210
19313 5321 1309
19314 64   8286
19315 9485 1535
19316 8578 4881
19317 5069 8480
19318 4370 2135
19319 2519 5259
19320 2278 8865
19321 6244 2097
19322 6918 4920
19323 3074 5135
19324 5651 9623
19325 8115 8402
19326 964  1062
19327 2819 8438
19328 5560 5180
19329 9148 2941
19330 8964 5431
19331 1907 8950
19332 505  468 
19333 7276 4322
19334 3568 1125
19335 9933 3053
19336 9324 961 
19337 3302 158 
19338 2341 2524
19339 9845 4886
19340 2515 7706
19341 1992 3337
19342 3259 3607
19343 8034 1682
19344 9671 5479
19345 1404 8968
19346 1365 3340
19347 2701 2975
19348 8824 4043
19349 4435 3755
19350 6615 8786
19351 7499 4811
19352 8081 9373
19353 8325 8948
19354 2489 4526
19355 5136 5236
19356 7493 577 
19357 2903 6494
19358 8959 3529
19359 4121 3890
19360 2005 4962
19361 2618 9116
19362 3370 172 
19363 5253 5935
19364 6164 9189
19365 4640 3166
19366 8508 8602
19367 421  6679
19368 6809 9366
19369 7771 6457
19370 6719 1519
19371 2638 2929
19372 9921 5475
19373 4581 7967
19374 7936 3424
19375 3710 6581
19376 5927 5626
19377 3876 2543
19378 4988 2807
19379 759  387 
19380 9869 5285
19381 6491 9860
19382 2361 3169
19383 1517 2761
19384 7547 802 
19385 6191 9423
19386 5859 5275
19387 8787 4050
19388 9775 887 
19389 5147 9804
19390 5946 8009
19391 260  3129
19392 1981 136 
19393 1566 9667
19394 4536 8127
19395 9642 2370
19396 4591 5275
19397 8853 2585
19398 1792 4338
19399 8663 4239
19400 8899 1936
19401 2219 7609
19402 5924 29  
19403 4085 1347
19404 79   1778
19405 4018 931 
19406 7671 5727
19407 1508 3717
19408 7314 9   
19409 3469 2494
19410 6288 8942
19411 3488 7392
19412 6720 3342
19413 9359 4192
19414 3786 697 
19415 6340 2843
19416 9769 4615
19417 8388 5034
19418 2346 2308
19419 5602 5578
19420 6167 8143
19421 8962 2092
19422 3652 4181
19423 1830 3150
19424 4122 9330
19425 7527 7212
19426 8299 4127
19427 9426 7847
19428 1996 8338
19429 3154 9043
19430 671  4340
19431 1517 7951
19432 4960 8656
19433 3806 1638
19434 6913 1859
19435 9038 9679
19436 4352 9027
19437 7244 2977
19438 6949 8944
19439 5507 8906
19440 3448 5424
19441 9176 3962
19442 1580 9106
19443 3661 532 
19444 4080 6348
19445 6956 7724
19446 1368 7653
19447 136  8564
19448 6226 796 
19449 152  1951
19450 8635 765 
19451 8637 8348
19452 11   8491
19453 4068 9011
19454 7325 2419
19455 4153 5235
19456 2787 3465
19457 9102 1954
19458 1813 407 
19459 9828 1681
19460 9981 6069
19461 4927 8715
19462 9426 524 
19463 2187 2319
19464 9375 6773
19465 7519 821 
19466 4582 6355
19467 5643 39  
19468 9311 7829
19469 2816 4380
19470 2019 4131
19471 6638 4742
19472 5719 7598
19473 871  3560
19474 3844 2526
19475 5909 3439
19476 8149 7521
19477 7367 9956
19478 9610 4772
19479 6459 4248
19480 4768 2066
19481 2551 2970
19482 8443 7587
19483 3052 1940
19484 5660 4   
19485 2823 8914
19486 6805 2723
19487 6860 9029
19488 7952 4823
19489 9889 8850
19490 7023 7143
19491 9082 273 
19492 3654 5336
19493 8172 4029
19494 3690 6621
19495 8989 2127
19496 9605 105 
19497 8755 7529
19498 3751 1254
19499 3279 3477
19500 3599 1862
19501 3209 6923
19502 1523 6440
19503 2571 5095
19504 9890 2815
19505 1072 9757
19506 5432 3947
19507 5268 8206
19508 3097 8209
19509 6593 1561
19510 5273 5625
19511 6043 7917
19512 9556 7644
19513 8446 4639
19514 2217 5745
19515 9988 4022
19516 6098 5367
19517 5701 6058
19518 174  1989
19519 3213 6616
19520 4177 3964
19521 1881 4518
19522 5529 2137
19523 5160 8594
19524 6731 2453
19525 2833 1936
19526 2873 4127
19527 4868 7528
19528 6529 6711
19529 4530 7470
19530 4876 9963
19531 3270 9068
19532 5991 640 
19533 9687 5233
19534 1051 4305
19535 7535 6409
19536 6179 1786
19537 6518 3735
19538 7323 4882
19539 2951 9767
19540 9252 4880
19541 9780 8069
19542 1985 8216
19543 1661 2041
19544 8422 1232
19545 8409 5459
19546 5263 5857
19547 4433 5119
19548 3696 5167
19549 7331 8893
19550 2433 3938
19551 406  3   
19552 9506 2175
19553 7013 5780
19554 2594 7001
19555 4092 4864
19556 7464 1935
19557 6630 4998
19558 5545 2919
19559 9406 6689
19560 9707 5329
19561 2974 1283
19562 7962 6563
19563 9372 8072
19564 7937 8275
19565 8952 4909
19566 6784 990 
19567 4187 7548
19568 5786 7160
19569 5430 4824
19570 8263 8364
19571 2454 9073
19572 2222 5813
19573 6860 5271
19574 940  1640
19575 2993 2178
19576 6653 1688
19577 4675 3622
19578 2427 1506
19579 447  2465
19580 7144 7385
19581 8024 4873
19582 1776 6463
19583 6011 2226
19584 9899 3593
19585 9569 6706
19586 6022 7601
19587 903  2717
19588 9769 4582
19589 3760 9993
19590 3779 4412
19591 3336 3431
19592 6595 1976
19593 3660 1268
19594 9133 7736
19595 5301 5633
19596 2188 1481
19597 2030 9357
19598 8635 8064
19599 4616 3491
19600 8082 8975
19601 9189 7032
19602 9227 1728
19603 7173 1593
19604 924  1998
19605 6710 7114
19606 9831 8866
19607 3933 7038
19608 2017 2266
19609 9144 7653
19610 7712 8292
19611 4651 505 
19612 7433 7394
19613 4488 5930
19614 6401 5839
19615 8718 3718
19616 2964 8519
19617 4576 6852
19618 6574 1731
19619 8490 1373
19620 6304 1614
19621 5260 7079
19622 5906 1221
19623 5071 6814
19624 5274 683 
19625 9495 4992
19626 6537 2689
19627 5326 9822
19628 429  5690
19629 8887 168 
19630 3243 6358
19631 6933 2083
19632 7626 2389
19633 605  2734
19634 7588 6037
19635 5608 1755
19636 3823 5712
19637 2461 3941
19638 628  7409
19639 9607 4712
19640 5612 6162
19641 8537 5122
19642 4464 7353
19643 6205 1146
19644 5761 7491
19645 940  1063
19646 7258 741 
19647 1286 7234
19648 7221 1439
19649 2108 7119
19650 1079 6892
19651 6340 9887
19652 4405 6637
19653 9103 5999
19654 2367 379 
19655 9056 5770
19656 9140 9970
19657 3538 20  
19658 4535 2897
19659 1290 6314
19660 1438 9428
19661 8442 7493
19662 7313 6659
19663 9014 6087
19664 4912 1824
19665 3549 1817
19666 1489 6674
19667 9618 9440
19668 2930 7779
19669 6651 2511
19670 7262 752 
19671 6321 8748
19672 8085 1899
19673 5533 5988
19674 2300 9151
19675 1785 8081
19676 6602 8946
19677 1742 7049
19678 7092 2170
19679 6545 6743
19680 268  9224
19681 240  8773
19682 6506 7096
19683 4018 678 
19684 559  4541
19685 9373 931 
19686 3258 2747
19687 9849 2808
19688 148  4970
19689 2014 8688
19690 8179 7907
19691 3729 9818
19692 3183 4179
19693 8729 1986
19694 9545 9403
19695 1662 6062
19696 3900 5596
19697 1952 2381
19698 6724 7248
19699 6938 7487
19700 5229 3633
19701 9767 667 
19702 8889 6630
19703 8359 7223
19704 7092 3413
19705 5971 6362
19706 9607 9510
19707 3315 1484
19708 8017 6361
19709 5940 390 
19710 2858 2851
19711 1930 2281
19712 5710 4831
19713 6317 9026
19714 1478 2781
19715 487  250 
19716 3759 6368
19717 2178 9144
19718 9980 5722
19719 3603 2625
19720 6358 5627
19721 6688 7307
19722 479  1112
19723 2281 8100
19724 614  7340
19725 2712 9450
19726 3380 9539
19727 4697 8788
19728 6670 3592
19729 5437 6453
19730 7521 6789
19731 2280 4860
19732 144  6450
19733 8291 9144
19734 665  9917
19735 6991 685 
19736 603  376 
19737 5975 331 
19738 382  7977
19739 4830 6141
19740 8217 2855
19741 8600 9742
19742 908  7108
19743 8432 5748
19744 3421 9209
19745 1670 9402
19746 1317 1405
19747 4572 5752
19748 6817 8031
19749 7338 747 
19750 5029 550 
19751 5816 4326
19752 6762 2285
19753 6840 1091
19754 1811 4643
19755 9465 847 
19756 1703 1294
19757 8806 3496
19758 3115 9339
19759 8842 1878
19760 7505 1745
19761 6189 5355
19762 1961 673 
19763 8014 1650
19764 5799 50  
19765 781  7611
19766 7847 9513
19767 1787 3936
19768 1268 7595
19769 1523 4054
19770 5976 2283
19771 1893 7229
19772 2751 8263
19773 5504 7085
19774 3461 2041
19775 7013 9903
19776 1433 1716
19777 441  8803
19778 1618 4532
19779 2174 1318
19780 8427 5347
19781 1402 8649
19782 4964 1528
19783 2346 8681
19784 2692 2227
19785 7311 7754
19786 3916 6495
19787 2652 1531
19788 1814 5275
19789 9524 9698
19790 7163 7978
19791 225  5621
19792 8939 1892
19793 5897 1424
19794 5620 2163
19795 97   5383
19796 4153 2450
19797 7074 1470
19798 5398 1469
19799 5882 8679
19800 4780 1660
19801 7441 4646
19802 8972 8634
19803 9237 1853
19804 4980 1867
19805 1086 8209
19806 777  18  
19807 9732 8395
19808 6205 8704
19809 2802 1328
19810 5650 8998
19811 1056 4933
19812 7030 1123
19813 7865 3658
19814 2465 8227
19815 3920 6428
19816 8883 6383
19817 4718 3927
19818 2562 4625
19819 6460 6212
19820 8046 3941
19821 6246 7092
19822 1559 5711
19823 3568 9977
19824 9890 5179
19825 8586 9417
19826 5534 2766
19827 1919 1338
19828 7623 4471
19829 2108 4339
19830 7572 7383
19831 5328 2608
19832 845  7074
19833 6127 6071
19834 6864 3428
19835 2471 859 
19836 1460 6957
19837 3476 1655
19838 5012 217 
19839 2169 4325
19840 7261 8180
19841 8456 5013
19842 2190 5400
19843 3333 5338
19844 6935 9292
19845 2804 7601
19846 2875 7357
19847 3777 5770
19848 997  7926
19849 1460 1489
19850 6302 1102
19851 3141 705 
19852 6088 2480
19853 6672 4914
19854 2411 7155
19855 8346 8207
19856 8588 525 
19857 3146 3984
19858 6897 5898
19859 6778 6144
19860 2026 2668
19861 43   2787
19862 6095 7883
19863 635  849 
19864 9755 3236
19865 5123 6451
19866 4469 658 
19867 5386 6268
19868 6287 3761
19869 7868 2610
19870 7515 2842
19871 8667 6062
19872 9841 8490
19873 318  2498
19874 956  7783
19875 6607 3845
19876 7752 3546
19877 945  3281
19878 9971 7315
19879 8144 3236
19880 9623 2806
19881 4559 3486
19882 2545 4158
19883 2541 8125
19884 8815 3632
19885 2979 239 
19886 7959 1777
19887 3767 8386
19888 2662 2430
19889 5771 3451
19890 4110 5749
19891 549  8673
19892 473  8264
19893 8087 3705
19894 8347 9121
19895 6805 2814
19896 5413 1871
19897 4500 8911
19898 4836 8715
19899 8583 5417
19900 5556 1069
19901 9517 1464
19902 4836 1787
19903 5657 2523
19904 3860 2195
19905 1138 3723
19906 1357 6123
19907 7675 416 
19908 4014 1436
19909 5623 6908
19910 659  688 
19911 7979 5595
19912 4330 5632
19913 1859 9017
19914 4042 8555
19915 9341 8862
19916 8329 1064
19917 6275 9866
19918 6024 4862
19919 2797 7933
19920 1399 7853
19921 2057 7737
19922 4893 8102
19923 883  3933
19924 7153 843 
19925 3070 8310
19926 8992 4038
19927 7626 7854
19928 6659 209 
19929 326  3503
19930 8059 8067
19931 3497 6137
19932 8205 8557
19933 7578 3457
19934 7906 9864
19935 5582 4313
19936 7516 9308
19937 2727 6765
19938 3243 4214
19939 182  4553
19940 655  9582
19941 4384 9308
19942 3348 6199
19943 9286 7442
19944 4133 5560
19945 4336 5692
19946 8058 3106
19947 4823 3509
19948 402  8171
19949 6477 3925
19950 558  2890
19951 1470 9859
19952 8703 5715
19953 4391 9843
19954 9017 8987
19955 9731 3791
19956 9839 3766
19957 9277 7645
19958 538  509 
19959 4476 1481
19960 3914 7823
19961 5356 9129
19962 7306 7522
19963 4592 6909
19964 2390 9479
19965 9328 1453
19966 2611 2344
19967 4225 8827
19968 4487 2108
19969 5737 550 
19970 5597 4050
19971 185  996 
19972 1556 8765
19973 624  6547
19974 8314 3611
19975 6320 7299
19976 2174 5449
19977 9984 7111
19978 6265 2529
19979 5168 468 
19980 1040 3800
19981 2553 6928
19982 4340 1428
19983 6610 411 
19984 1195 317 
19985 3979 800 
19986 2461 4438
19987 6764 6819
19988 9958 4006
19989 8902 1460
19990 8657 4630
19991 6246 6477
19992 5768 1008
19993 6530 8273
19994 593  7442
19995 2386 7328
19996 2994 3215
19997 7307 7702
19998 5244 9275
19999 9054 8133
20000 3488 1473
20001 8421 912 
20002 8776 9014
20003 5270 3052
20004 3520 850 
20005 9969 4674
20006 7290 7112
20007 4256 8587
20008 544  9801
20009 7637 1106
20010 3417 6232
20011 8835 530 
20012 9552 8923
20013 5083 9288
20014 3066 6937
20015 898  9852
20016 5644 5198
20017 3375 3363
20018 8119 4392
20019 4665 8454
20020 3908 6425
20021 2727 8511
20022 6470 6825
20023 3132 3499
20024 7942 1729
20025 8646 2942
20026 5191 2387
20027 6438 983 
20028 7112 8134
20029 1778 4192
20030 3081 2997
20031 5276 1366
20032 6504 9395
20033 536  8355
20034 6769 182 
20035 1458 757 
20036 1499 9408
20037 4811 4689
20038 3432 2550
20039 3450 5558
20040 7732 9899
20041 3550 8395
20042 720  6261
20043 939  2197
20044 9739 3087
20045 8384 7362
20046 9550 659 
20047 7662 8537
20048 3114 7321
20049 3460 5549
20050 609  5704
20051 3184 1589
20052 1954 1571
20053 5634 7512
20054 2141 5894
20055 1166 5670
20056 6474 1909
20057 2406 2001
20058 1393 369 
20059 5831 546 
20060 2427 879 
20061 5447 5414
20062 7434 1452
20063 1355 7649
20064 6159 519 
20065 9684 1093
20066 6026 447 
20067 9347 9954
20068 4968 7565
20069 7872 2575
20070 7000 1186
20071 9927 809 
20072 5443 4344
20073 3935 1640
20074 5220 582 
20075 1770 4849
20076 9943 3959
20077 9018 553 
20078 8108 8792
20079 6158 4398
20080 5979 5544
20081 6058 5917
20082 5631 5877
20083 6760 7449
20084 3320 4658
20085 9827 2455
20086 2105 7904
20087 5850 6443
20088 4596 2214
20089 3894 9404
20090 3579 2465
20091 2336 7203
20092 2230 4223
20093 9131 8563
20094 4410 7040
20095 3348 5695
20096 385  177 
20097 1436 8469
20098 6331 3522
20099 2328 4828
20100 4502 1178
20101 3131 9669
20102 8774 239 
20103 6878 7421
20104 310  7214
20105 918  3197
20106 8011 2471
20107 3902 225 
20108 9585 1256
20109 45   2391
20110 6943 295 
20111 6516 1782
20112 9323 3627
20113 6360 9063
20114 3098 5513
20115 7473 8355
20116 5859 5884
20117 1478 4464
20118 5333 5176
20119 1714 1002
20120 4982 3833
20121 725  8442
20122 5557 329 
20123 9457 5660
20124 3620 6898
20125 9975 6871
20126 2483 4406
20127 3636 3941
20128 7290 2392
20129 5094 3548
20130 9525 7196
20131 7614 6484
20132 1406 5961
20133 1530 5232
20134 2111 2410
20135 8617 2778
20136 2690 5788
20137 492  4635
20138 2044 6301
20139 161  1787
20140 2253 8678
20141 8154 5521
20142 3034 2354
20143 7434 6801
20144 6041 7129
20145 3929 6496
20146 1431 6009
20147 3521 6082
20148 1185 1122
20149 3894 5517
20150 8133 9071
20151 385  2795
20152 3154 6868
20153 3767 8191
20154 8586 3946
20155 6038 3120
20156 6599 9982
20157 4285 9967
20158 1984 7511
20159 5451 1579
20160 823  1440
20161 5    2421
20162 9961 561 
20163 6565 957 
20164 2523 9150
20165 7553 3617
20166 1896 2628
20167 1408 3488
20168 3026 5244
20169 480  8277
20170 2244 2417
20171 6699 9755
20172 2369 8423
20173 5378 7320
20174 7418 9773
20175 9946 7245
20176 5178 2766
20177 6831 7863
20178 3116 5324
20179 4270 5272
20180 9677 5211
20181 4495 8080
20182 3171 5924
20183 4022 5314
20184 1968 6687
20185 8517 5144
20186 8223 2870
20187 9332 6086
20188 7364 4363
20189 4324 3100
20190 1430 5846
20191 474  2821
20192 9130 9198
20193 3235 614 
20194 5783 7724
20195 4881 5969
20196 1997 6978
20197 5613 8493
20198 8185 9284
20199 6279 5761
20200 3751 8454
20201 5772 1671
20202 6707 3035
20203 3302 7029
20204 8805 4313
20205 6643 7712
20206 8603 8320
20207 7264 1391
20208 7344 8630
20209 2207 9005
20210 8143 4584
20211 7041 4329
20212 5983 2723
20213 8477 7279
20214 4813 845 
20215 6376 2466
20216 5772 8219
20217 7053 794 
20218 2925 4880
20219 339  4453
20220 9475 6165
20221 5187 5340
20222 3886 4655
20223 3196 7340
20224 3356 2513
20225 9602 1739
20226 7439 7947
20227 9021 2593
20228 4786 3433
20229 888  1132
20230 1051 1723
20231 245  5045
20232 2478 6078
20233 8138 3436
20234 6501 3693
20235 4890 2242
20236 7214 9883
20237 7699 3096
20238 7597 2876
20239 8369 8472
20240 9909 600 
20241 2773 6233
20242 4741 9104
20243 7587 1995
20244 7436 7141
20245 1252 2234
20246 6829 9319
20247 2142 2736
20248 4668 5926
20249 3113 4524
20250 894  5275
20251 2857 7200
20252 5574 9159
20253 5869 6993
20254 1526 5961
20255 427  1223
20256 4917 6730
20257 9942 8803
20258 6926 3761
20259 1639 6317
20260 1130 3795
20261 1635 4425
20262 5315 7800
20263 2205 3025
20264 3943 5656
20265 679  6265
20266 8207 769 
20267 1613 7699
20268 8627 5534
20269 907  7842
20270 7284 1153
20271 1871 4800
20272 5465 6106
20273 8671 6486
20274 551  6544
20275 7631 3721
20276 1450 8224
20277 9212 5587
20278 2278 7273
20279 8733 1159
20280 4850 8835
20281 3801 5147
20282 8281 9314
20283 4155 9634
20284 1593 3222
20285 6504 8314
20286 2416 8333
20287 752  6956
20288 3971 4789
20289 8920 4920
20290 9767 9238
20291 7386 1529
20292 7370 7106
20293 5027 4335
20294 2583 8062
20295 7224 7400
20296 6622 3115
20297 8729 1524
20298 2695 3997
20299 8968 7279
20300 8652 7656
20301 4415 4299
20302 753  7657
20303 7529 5064
20304 652  5548
20305 449  6703
20306 7616 2675
20307 132  2958
20308 9937 7074
20309 2346 8504
20310 7345 7715
20311 8307 9868
20312 6758 3535
20313 2648 3838
20314 1744 8107
20315 5221 754 
20316 4246 2896
20317 9354 5304
20318 3138 7821
20319 1243 6129
20320 4598 4043
20321 519  365 
20322 6049 5313
20323 4918 1632
20324 5556 3291
20325 9335 2099
20326 3441 422 
20327 8128 593 
20328 4035 2184
20329 6989 8764
20330 2151 1393
20331 5567 414 
20332 2548 8268
20333 2047 7613
20334 6300 4350
20335 2410 6833
20336 3516 8419
20337 3368 357 
20338 9836 8519
20339 6880 7068
20340 1766 7559
20341 9479 4783
20342 5270 6256
20343 1578 3809
20344 1828 4254
20345 7089 6308
20346 4858 9458
20347 9858 9308
20348 1635 9386
20349 2478 7989
20350 5238 9980
20351 5677 4289
20352 1215 2726
20353 9777 5899
20354 9172 1556
20355 2046 2043
20356 7117 1985
20357 3350 9591
20358 7350 8141
20359 6688 6959
20360 8733 7285
20361 9845 4264
20362 9137 6228
20363 3493 1518
20364 4840 8017
20365 7196 4711
20366 9744 1286
20367 9576 2793
20368 9059 233 
20369 7118 1827
20370 4537 360 
20371 6890 9949
20372 5946 6137
20373 9072 6758
20374 8402 3222
20375 3412 9241
20376 9806 7717
20377 5762 8553
20378 7598 1745
20379 6247 6383
20380 585  1679
20381 7058 8305
20382 1443 7977
20383 49   9901
20384 9259 4111
20385 1884 8889
20386 8858 5036
20387 1163 5319
20388 595  1245
20389 2874 9407
20390 8176 6201
20391 9725 49  
20392 708  4207
20393 3159 3350
20394 6077 6901
20395 8599 2016
20396 5037 6301
20397 7377 6742
20398 909  9310
20399 5813 7948
20400 7721 8088
20401 657  7556
20402 9453 8139
20403 3389 1438
20404 680  1438
20405 2    3766
20406 5058 3747
20407 2721 6091
20408 7420 1683
20409 4942 7633
20410 7629 7258
20411 3379 2786
20412 7295 1035
20413 5368 2760
20414 2745 7506
20415 7227 3027
20416 5074 3770
20417 6476 485 
20418 7121 2188
20419 190  6264
20420 5314 1160
20421 9382 8764
20422 1295 2558
20423 6089 22  
20424 9797 3928
20425 4507 3184
20426 8527 6827
20427 1883 9704
20428 2542 7017
20429 4855 8696
20430 8210 522 
20431 6875 2395
20432 5308 9337
20433 8225 9973
20434 747  698 
20435 5290 5050
20436 5907 1613
20437 2873 4131
20438 1250 5510
20439 6941 8722
20440 7742 2987
20441 2362 7082
20442 2163 545 
20443 4184 2069
20444 8646 8826
20445 8659 5889
20446 8916 5776
20447 9027 5093
20448 2647 1203
20449 2995 9203
20450 1705 3471
20451 8292 1957
20452 8442 9667
20453 9989 8909
20454 8410 8521
20455 3688 6313
20456 5290 7067
20457 2226 2068
20458 2844 752 
20459 3112 5596
20460 8654 6030
20461 6074 8899
20462 5269 7715
20463 7942 5667
20464 7696 9851
20465 4354 67  
20466 1712 7129
20467 7659 760 
20468 9549 489 
20469 6980 5021
20470 3626 9412
20471 300  1435
20472 3513 3922
20473 8802 6389
20474 9086 4362
20475 7067 7072
20476 4947 9535
20477 1652 7770
20478 1562 5454
20479 9732 3812
20480 50   8475
20481 9135 9173
20482 5615 8037
20483 4303 8301
20484 726  5078
20485 177  5547
20486 8470 9007
20487 9564 8058
20488 7615 7233
20489 9528 3507
20490 6    5992
20491 6764 3905
20492 7842 1340
20493 3478 2733
20494 1907 5113
20495 8794 4395
20496 4689 5516
20497 3293 5682
20498 7115 3339
20499 6190 2733
20500 5929 5034
20501 1440 4703
20502 2077 3512
20503 1923 3119
20504 8311 3274
20505 5625 7199
20506 6001 8427
20507 3503 245 
20508 1422 9356
20509 29   354 
20510 9944 6064
20511 8394 1324
20512 9628 4035
20513 913  6072
20514 7615 514 
20515 1184 3836
20516 3399 6616
20517 5786 6012
20518 8544 4423
20519 9145 7930
20520 5623 9027
20521 9874 5030
20522 2282 7514
20523 718  6114
20524 9218 3249
20525 7454 2650
20526 552  9292
20527 6155 4956
20528 7628 4388
20529 9955 9340
20530 4981 9866
20531 2579 6080
20532 4482 4859
20533 1953 6467
20534 7991 2655
20535 8072 2475
20536 2378 5906
20537 8586 6857
20538 2625 1652
20539 7834 4672
20540 5082 4233
20541 6717 6637
20542 162  5273
20543 1843 7882
20544 9578 4811
20545 7326 4864
20546 4374 6957
20547 5054 5251
20548 9869 1391
20549 8290 9669
20550 6597 6974
20551 1197 1870
20552 4683 2377
20553 5991 7896
20554 4485 4751
20555 5658 3270
20556 1760 4866
20557 866  8784
20558 124  3883
20559 7190 4443
20560 9083 5587
20561 2730 7916
20562 4695 163 
20563 7986 2654
20564 5306 2971
20565 5368 1232
20566 1193 2998
20567 5191 4472
20568 890  3049
20569 8243 8498
20570 4330 3882
20571 1316 3319
20572 2467 8154
20573 5574 1018
20574 2373 1988
20575 2586 9922
20576 6434 9910
20577 3700 646 
20578 6125 5438
20579 6894 7988
20580 2970 7181
20581 3752 5211
20582 1928 303 
20583 6336 4373
20584 4240 31  
20585 4829 3883
20586 9750 6564
20587 7607 8693
20588 2406 7611
20589 2616 6561
20590 9970 2261
20591 3352 7388
20592 1645 250 
20593 2370 9354
20594 2003 6380
20595 2743 9935
20596 777  5054
20597 2467 691 
20598 7453 5923
20599 5519 6792
20600 5486 3497
20601 5672 3621
20602 103  5271
20603 3711 2081
20604 8386 2559
20605 9368 2351
20606 3466 5173
20607 7654 1090
20608 5217 7494
20609 2208 8517
20610 5169 442 
20611 8172 9706
20612 2473 364 
20613 8622 5226
20614 1994 103 
20615 4661 671 
20616 7377 5617
20617 3199 4321
20618 929  5466
20619 5795 2005
20620 6492 876 
20621 4049 4459
20622 8593 1265
20623 6095 536 
20624 8697 3185
20625 5094 803 
20626 185  8368
20627 8912 2815
20628 508  1315
20629 5849 9197
20630 3216 5739
20631 7    6651
20632 4583 173 
20633 995  7829
20634 5159 2909
20635 310  8938
20636 7396 8042
20637 9789 1181
20638 2068 8482
20639 5642 564 
20640 2717 6669
20641 4690 1023
20642 2912 9289
20643 2864 5555
20644 8854 3161
20645 3790 7903
20646 5038 8152
20647 2534 5027
20648 4473 9453
20649 3642 2085
20650 9698 1760
20651 7140 7139
20652 76   6869
20653 5447 3649
20654 5913 8248
20655 1618 3025
20656 1529 5210
20657 8078 5557
20658 7741 2757
20659 2899 6319
20660 5273 9915
20661 8998 4807
20662 8067 4515
20663 5397 3417
20664 2728 2123
20665 268  1394
20666 5920 8057
20667 8068 2225
20668 970  9731
20669 7959 66  
20670 8850 5434
20671 9130 498 
20672 8690 4852
20673 6397 2909
20674 3002 3037
20675 17   2219
20676 6498 5568
20677 7696 5141
20678 166  2663
20679 4528 3780
20680 2070 4847
20681 4445 2421
20682 163  7891
20683 5908 3716
20684 2162 3508
20685 6159 7736
20686 1570 4755
20687 6053 9159
20688 8060 9487
20689 3244 2910
20690 5681 3223
20691 1420 1613
20692 4803 6922
20693 2567 1796
20694 6246 6777
20695 5590 3656
20696 4793 8367
20697 9939 1180
20698 8745 8125
20699 2559 7479
20700 103  5565
20701 1722 5338
20702 6654 4035
20703 8306 3352
20704 2733 2683
20705 3456 5698
20706 5658 2572
20707 956  7076
20708 5111 8343
20709 1828 7673
20710 8793 3976
20711 422  6031
20712 3329 6576
20713 8098 9708
20714 9531 9954
20715 1365 9959
20716 3175 3528
20717 3805 9466
20718 9407 8245
20719 2416 4588
20720 8133 7219
20721 2302 5308
20722 9543 6174
20723 8754 8774
20724 423  574 
20725 3078 2941
20726 609  9327
20727 7172 1261
20728 2146 1066
20729 3197 3831
20730 4342 5183
20731 5860 2078
20732 803  4650
20733 4197 2817
20734 7097 1923
20735 1400 7124
20736 1646 4542
20737 4403 3399
20738 1525 1804
20739 2538 9931
20740 1794 8690
20741 4489 9500
20742 8702 8406
20743 71   9401
20744 2098 4689
20745 4111 2396
20746 3937 9020
20747 3910 4844
20748 2175 3678
20749 2259 4203
20750 8174 29  
20751 2629 8688
20752 3968 6862
20753 1634 3678
20754 582  405 
20755 8405 7039
20756 9661 5573
20757 4703 3309
20758 3224 6593
20759 5646 3440
20760 6408 1761
20761 1132 6501
20762 736  4837
20763 9257 9349
20764 7174 4940
20765 5458 6004
20766 1357 85  
20767 6243 6043
20768 220  946 
20769 5896 1366
20770 7392 6215
20771 8979 1817
20772 5319 3786
20773 8901 1404
20774 8159 9693
20775 4602 8951
20776 5819 8440
20777 2606 3033
20778 2643 9933
20779 5969 9134
20780 9053 5019
20781 7281 8608
20782 466  4635
20783 8992 8065
20784 9977 3888
20785 1766 3058
20786 8559 6488
20787 8549 6756
20788 9525 2338
20789 6262 4615
20790 7291 3484
20791 9155 4281
20792 9040 9982
20793 7879 856 
20794 5955 3284
20795 7865 2042
20796 6673 8088
20797 8260 7606
20798 6748 2860
20799 3555 7136
20800 1388 2096
20801 7349 6471
20802 2992 1585
20803 7710 5539
20804 306  6417
20805 2593 2639
20806 8778 9472
20807 9693 794 
20808 158  6829
20809 9571 7211
20810 2024 6121
20811 5807 6980
20812 1269 6959
20813 7940 8713
20814 5685 5153
20815 3891 1792
20816 7746 3704
20817 3909 3127
20818 1879 359 
20819 5987 9849
20820 2129 683 
20821 8008 690 
20822 4214 7147
20823 587  754 
20824 9438 6982
20825 9016 5267
20826 4603 1012
20827 2910 2996
20828 7268 4401
20829 3818 9138
20830 9686 5732
20831 2450 5734
20832 2916 3161
20833 7942 3128
20834 6436 6495
20835 8472 1767
20836 4992 9620
20837 6832 9499
20838 7242 6295
20839 7440 537 
20840 2750 2957
20841 897  3925
20842 9208 8115
20843 7236 2415
20844 3393 1167
20845 4821 1571
20846 9635 4255
20847 3548 7246
20848 6609 1649
20849 680  25  
20850 2765 6465
20851 7327 8189
20852 9191 9868
20853 7974 2431
20854 9885 6106
20855 5129 9849
20856 404  8027
20857 2457 4330
20858 3819 7536
20859 5742 8170
20860 8919 3296
20861 959  3575
20862 6105 7507
20863 574  3549
20864 8039 6233
20865 4046 6668
20866 135  2283
20867 9089 8436
20868 6934 2100
20869 4511 8178
20870 4557 8304
20871 3272 1149
20872 2655 5655
20873 3609 6465
20874 8568 7970
20875 7046 9612
20876 2375 3432
20877 8302 6390
20878 562  4323
20879 327  3277
20880 8151 5647
20881 6071 1370
20882 4479 3720
20883 4295 7385
20884 1200 6870
20885 5544 7475
20886 1383 2583
20887 293  5605
20888 4739 259 
20889 3292 1776
20890 4599 5277
20891 6213 1678
20892 6697 1329
20893 2623 9308
20894 6877 3356
20895 2567 2671
20896 1705 5044
20897 5687 3601
20898 120  6518
20899 7885 3188
20900 6998 311 
20901 9370 9850
20902 2606 9694
20903 4292 9039
20904 508  5564
20905 254  3208
20906 8717 9627
20907 8119 3476
20908 1831 7115
20909 5876 3951
20910 6728 5197
20911 2603 2046
20912 8476 2103
20913 2231 7933
20914 5208 7055
20915 344  9995
20916 124  1158
20917 8946 576 
20918 1262 4234
20919 3604 7384
20920 986  7368
20921 3691 1918
20922 1604 8186
20923 9878 1384
20924 7215 3559
20925 1306 9258
20926 8947 544 
20927 2550 2433
20928 5642 482 
20929 2832 4068
20930 3525 3724
20931 8891 441 
20932 2534 5866
20933 7690 594 
20934 2724 409 
20935 5011 4737
20936 6637 3733
20937 8729 8828
20938 9851 2452
20939 2383 4661
20940 7497 5041
20941 5026 5636
20942 2206 521 
20943 437  7267
20944 676  2432
20945 9421 9154
20946 9318 5447
20947 6136 4518
20948 6708 2524
20949 1276 1889
20950 1602 6265
20951 4462 5812
20952 8829 4826
20953 6343 3767
20954 7413 9240
20955 8468 1008
20956 1284 4681
20957 3263 5810
20958 3140 9136
20959 2565 6105
20960 9692 3322
20961 8765 6032
20962 6160 9777
20963 4025 708 
20964 5552 8700
20965 4394 8117
20966 8945 3760
20967 4629 935 
20968 6348 9161
20969 2481 3720
20970 2079 4295
20971 2176 5102
20972 483  1343
20973 1394 8732
20974 7381 4743
20975 2734 8567
20976 8133 2513
20977 6310 7043
20978 6373 4185
20979 6925 9012
20980 1623 3236
20981 8819 3199
20982 8810 8231
20983 5846 1168
20984 8977 5817
20985 4951 1708
20986 7317 4871
20987 3381 3471
20988 7624 5740
20989 7949 9403
20990 230  4571
20991 7963 770 
20992 6887 5271
20993 7565 5050
20994 6454 7236
20995 9580 3646
20996 720  7759
20997 8400 2130
20998 8426 5887
20999 8968 6487
21000 5109 2272
21001 8045 3960
21002 7159 8630
21003 4033 251 
21004 4622 6567
21005 5572 8100
21006 7870 4772
21007 5260 9532
21008 5688 1608
21009 2874 5243
21010 3723 9430
21011 1722 2216
21012 4708 9530
21013 8140 1886
21014 6136 6294
21015 7656 559 
21016 8431 4890
21017 5480 1005
21018 6784 1812
21019 8204 6067
21020 8482 568 
21021 6618 3853
21022 2917 3906
21023 8399 9434
21024 4256 4719
21025 5636 2308
21026 2234 438 
21027 3313 8537
21028 8017 7917
21029 3773 3066
21030 7522 1097
21031 2037 4006
21032 2721 7595
21033 327  7214
21034 7917 7309
21035 5799 6200
21036 3419 9645
21037 8482 7811
21038 5148 4199
21039 5659 9308
21040 6771 1022
21041 6902 3640
21042 4419 5814
21043 8566 2157
21044 3301 6806
21045 4999 9276
21046 7712 4008
21047 4036 8254
21048 8833 6945
21049 5440 4316
21050 6655 8616
21051 942  2290
21052 1108 713 
21053 2959 1481
21054 7934 1220
21055 4786 7796
21056 6388 5527
21057 7273 2800
21058 3365 4975
21059 2514 5117
21060 3635 1709
21061 5027 1063
21062 2148 3218
21063 4041 611 
21064 109  4625
21065 7726 8097
21066 8040 6632
21067 5248 7338
21068 3546 4810
21069 6728 1701
21070 6787 6438
21071 536  9428
21072 471  868 
21073 7797 57  
21074 5433 9419
21075 1066 1875
21076 4668 6063
21077 2007 3246
21078 703  8259
21079 7721 4598
21080 5913 7705
21081 6231 4867
21082 3732 5094
21083 6460 5952
21084 9526 6374
21085 1538 5912
21086 6159 7767
21087 647  3853
21088 505  8153
21089 8557 2118
21090 2731 3287
21091 193  4212
21092 3377 402 
21093 973  1271
21094 6902 9453
21095 2806 4123
21096 9348 1903
21097 9843 689 
21098 4950 9683
21099 559  2511
21100 7433 3770
21101 3071 6941
21102 6954 134 
21103 6186 8659
21104 3738 6867
21105 2082 1233
21106 7366 8231
21107 4398 6864
21108 1433 6884
21109 1068 9024
21110 8884 6933
21111 7283 1168
21112 4039 952 
21113 8714 1836
21114 1649 9621
21115 3750 8148
21116 5895 2719
21117 3127 2810
21118 5762 6680
21119 7144 966 
21120 1840 333 
21121 6839 9028
21122 6282 3748
21123 5992 9410
21124 9535 4228
21125 425  4995
21126 1800 5845
21127 5021 7381
21128 2323 5709
21129 2818 5253
21130 3154 3956
21131 8848 2866
21132 6303 6589
21133 9618 2737
21134 9873 1233
21135 1361 5896
21136 7349 2511
21137 7422 483 
21138 2300 5027
21139 6528 2759
21140 7013 9719
21141 1009 7118
21142 175  9610
21143 8088 6255
21144 5103 6569
21145 7552 64  
21146 3162 666 
21147 8020 9976
21148 8966 6464
21149 4314 4721
21150 8803 2822
21151 830  3909
21152 3096 5356
21153 3838 5179
21154 337  3292
21155 221  5303
21156 4594 2131
21157 9206 5248
21158 5123 8921
21159 8017 5052
21160 7499 8512
21161 8220 9504
21162 4368 2477
21163 6399 2182
21164 827  436 
21165 479  9234
21166 1129 1748
21167 3788 7212
21168 4357 2040
21169 3350 1188
21170 7108 9667
21171 8826 5489
21172 8765 366 
21173 3655 4468
21174 8901 126 
21175 8145 9217
21176 1913 5914
21177 612  6083
21178 8001 9715
21179 4657 6074
21180 7549 1604
21181 9531 86  
21182 724  5008
21183 7996 133 
21184 5749 1039
21185 5786 9806
21186 5850 898 
21187 2727 964 
21188 888  8107
21189 6350 5840
21190 3053 8046
21191 6623 9338
21192 7614 1110
21193 5552 9728
21194 2498 8231
21195 5467 7809
21196 6906 3246
21197 5101 6487
21198 8776 7978
21199 1482 2107
21200 3711 5240
21201 799  663 
21202 7064 2412
21203 3312 4301
21204 5226 5371
21205 7467 8462
21206 3170 6050
21207 6406 677 
21208 8633 5819
21209 7480 301 
21210 1900 5227
21211 7210 378 
21212 8020 2771
21213 3060 1448
21214 7850 3171
21215 8277 1592
21216 6094 5745
21217 7459 9730
21218 9518 6079
21219 4927 5135
21220 6855 5669
21221 6307 1263
21222 8046 2693
21223 9930 3142
21224 3957 6749
21225 553  8412
21226 541  8995
21227 5338 4455
21228 4933 9232
21229 1763 1054
21230 6894 1114
21231 4551 7370
21232 3131 2044
21233 2030 9117
21234 1554 6186
21235 5392 5852
21236 1333 361 
21237 6864 4399
21238 5391 9897
21239 7823 4878
21240 2638 5943
21241 9718 1732
21242 5409 5948
21243 486  3446
21244 1821 6362
21245 3525 7344
21246 8223 9370
21247 6390 7785
21248 4471 3648
21249 9132 1745
21250 9410 1327
21251 1720 9237
21252 7811 1550
21253 5177 5162
21254 9491 2139
21255 7844 6294
21256 9833 2694
21257 3969 734 
21258 7792 5090
21259 6760 3986
21260 2920 6129
21261 3235 2990
21262 4201 9325
21263 7502 9969
21264 9974 4119
21265 4311 5596
21266 4669 457 
21267 6899 5402
21268 72   2139
21269 7773 1584
21270 955  2304
21271 1601 3674
21272 5057 4365
21273 4424 907 
21274 1515 9503
21275 6981 2881
21276 3531 6905
21277 9519 8015
21278 5852 9706
21279 5440 1361
21280 2852 954 
21281 2774 3371
21282 3918 4393
21283 3854 3901
21284 2392 3729
21285 486  6303
21286 7801 9178
21287 1372 2491
21288 154  9386
21289 7102 3620
21290 7333 7036
21291 3021 8480
21292 7525 4515
21293 9462 3961
21294 4774 8331
21295 9013 2401
21296 6092 1418
21297 587  2355
21298 4499 8350
21299 8823 2559
21300 5557 8769
21301 215  1347
21302 7384 3950
21303 3618 3716
21304 8136 2404
21305 4759 2297
21306 5015 2131
21307 9984 6572
21308 9679 1808
21309 9279 2726
21310 1566 2906
21311 6827 8299
21312 8281 1843
21313 2761 5687
21314 8309 2729
21315 9880 7459
21316 259  476 
21317 5024 3631
21318 1312 115 
21319 503  2952
21320 2101 1540
21321 934  6850
21322 8182 3495
21323 7075 9491
21324 4151 5408
21325 1473 160 
21326 3942 3632
21327 6705 563 
21328 6230 1014
21329 8340 4540
21330 4303 8420
21331 3410 8008
21332 5626 6284
21333 3482 5396
21334 4862 7669
21335 9681 6973
21336 8380 2824
21337 6694 1623
21338 4894 5424
21339 5821 7779
21340 7638 2406
21341 2885 2615
21342 77   4895
21343 7323 7631
21344 8902 8853
21345 6911 6577
21346 6560 682 
21347 9138 7071
21348 3082 4640
21349 1205 1714
21350 3822 7485
21351 6365 5830
21352 5450 5406
21353 8096 5145
21354 6868 423 
21355 9127 971 
21356 37   3159
21357 9438 2607
21358 2213 9413
21359 1213 7273
21360 7422 5501
21361 8310 7913
21362 2703 1735
21363 193  9127
21364 7439 1956
21365 5260 6901
21366 974  7109
21367 209  8999
21368 8761 601 
21369 3132 7374
21370 324  9963
21371 1428 2013
21372 8431 7499
21373 5112 7864
21374 6676 3717
21375 1318 6065
21376 4591 2682
21377 8299 3661
21378 6724 8764
21379 4899 1611
21380 5624 5839
21381 6355 1155
21382 6175 8084
21383 2869 6996
21384 1770 5555
21385 5776 7554
21386 7558 9913
21387 7679 2349
21388 287  2115
21389 9546 9698
21390 1384 3880
21391 8970 6113
21392 8128 1315
21393 6595 7404
21394 6865 5533
21395 2937 1143
21396 4580 7058
21397 726  2673
21398 7611 5618
21399 1006 9202
21400 1576 7284
21401 3398 9940
21402 5896 7667
21403 9353 7256
21404 8769 9240
21405 5861 5871
21406 7565 363 
21407 8591 6609
21408 2131 2492
21409 7832 9415
21410 7308 3903
21411 3894 3516
21412 9656 7888
21413 532  1793
21414 9979 8371
21415 4983 5077
21416 8515 8742
21417 4581 3165
21418 5104 874 
21419 7886 6617
21420 9202 6276
21421 4062 3560
21422 700  9288
21423 753  6961
21424 3093 5262
21425 3184 7140
21426 5924 6832
21427 1695 4066
21428 8229 8987
21429 5416 411 
21430 6613 2962
21431 6082 4080
21432 8032 7003
21433 9698 2002
21434 461  1402
21435 7592 4627
21436 36   834 
21437 3091 4439
21438 725  9877
21439 9824 6731
21440 5228 5501
21441 131  8176
21442 2374 8794
21443 4634 6617
21444 8936 2873
21445 2077 5350
21446 9902 3123
21447 5974 4241
21448 609  5169
21449 488  1011
21450 4335 2535
21451 2856 7451
21452 7323 2434
21453 2719 4969
21454 7700 344 
21455 8757 6615
21456 966  6431
21457 3118 2630
21458 7371 6107
21459 7260 2670
21460 4430 4543
21461 3036 2494
21462 3093 9856
21463 5932 8955
21464 8565 2295
21465 5327 4000
21466 73   8631
21467 2931 7416
21468 1748 6002
21469 8343 8694
21470 9067 663 
21471 6509 3645
21472 8386 5356
21473 56   6429
21474 1563 7512
21475 1652 4769
21476 774  6644
21477 860  7200
21478 1484 1686
21479 493  885 
21480 1032 9690
21481 7893 9454
21482 4682 1727
21483 57   9433
21484 3440 8692
21485 8556 7164
21486 8065 769 
21487 42   8612
21488 2509 7717
21489 413  9633
21490 304  5472
21491 9306 243 
21492 2231 1732
21493 6129 5256
21494 407  2261
21495 9479 5375
21496 18   7548
21497 3581 8656
21498 4757 3520
21499 4908 4868
21500 8896 9168
21501 2803 308 
21502 1664 4578
21503 6447 3959
21504 5405 3774
21505 3056 967 
21506 2287 5945
21507 6717 6782
21508 8781 3588
21509 5080 6565
21510 3065 2196
21511 6410 3016
21512 6737 5982
21513 5645 4299
21514 8734 8224
21515 9101 3416
21516 5070 3934
21517 2625 6766
21518 547  4370
21519 5805 7261
21520 7857 5819
21521 8930 5489
21522 4785 9702
21523 2866 15  
21524 6228 3135
21525 7420 7088
21526 7467 1705
21527 5750 720 
21528 513  4305
21529 7861 9534
21530 9657 2944
21531 3960 621 
21532 2567 715 
21533 809  9624
21534 7874 816 
21535 7061 3426
21536 3459 3014
21537 2135 1850
21538 4544 7614
21539 8774 8817
21540 3149 3988
21541 939  766 
21542 3864 1553
21543 8969 5161
21544 3113 4555
21545 7246 4875
21546 3711 1576
21547 1574 8931
21548 2839 8890
21549 3668 8101
21550 9928 1872
21551 1092 1857
21552 9102 9950
21553 5331 8704
21554 5483 8371
21555 2689 4511
21556 3023 4281
21557 2782 2148
21558 425  4327
21559 1586 9517
21560 1391 8167
21561 7792 7252
21562 4785 9431
21563 3087 3619
21564 2500 7748
21565 7000 3534
21566 5516 5828
21567 7733 4946
21568 7083 4428
21569 9570 4774
21570 226  2986
21571 5183 7574
21572 4424 8626
21573 8290 6543
21574 9792 9416
21575 81   4782
21576 2889 2502
21577 6439 3234
21578 220  1359
21579 2035 3169
21580 2584 1566
21581 8881 4233
21582 4696 3835
21583 3697 606 
21584 3686 2302
21585 6703 872 
21586 3268 735 
21587 7927 1305
21588 106  2920
21589 7637 3343
21590 3684 5743
21591 9424 3867
21592 4193 3721
21593 2763 4842
21594 1374 5402
21595 8224 5269
21596 7668 758 
21597 9796 7409
21598 397  8059
21599 6432 1990
21600 2455 3765
21601 247  1051
21602 2517 1900
21603 5936 4022
21604 3242 1326
21605 4433 249 
21606 8315 4319
21607 9571 7993
21608 4948 2411
21609 6741 80  
21610 3622 3919
21611 939  8295
21612 6096 565 
21613 6659 9395
21614 703  2173
21615 8542 1998
21616 6385 8935
21617 935  2657
21618 6706 5551
21619 8444 4733
21620 3530 9452
21621 5803 4983
21622 3412 3781
21623 4107 1086
21624 5513 30  
21625 3762 8255
21626 4982 6881
21627 68   4318
21628 136  238 
21629 2395 3969
21630 3560 5101
21631 6123 8492
21632 4654 8407
21633 6122 7144
21634 1208 5053
21635 283  7054
21636 1524 4386
21637 5157 4594
21638 4014 8717
21639 3809 5132
21640 7130 3648
21641 1654 4079
21642 8011 1242
21643 1353 512 
21644 1265 8489
21645 1524 6403
21646 3071 6547
21647 5652 673 
21648 2941 5290
21649 2692 4762
21650 5974 6368
21651 942  7466
21652 1444 143 
21653 2418 8506
21654 9445 3406
21655 9055 8507
21656 1653 8131
21657 23   8687
21658 5395 1430
21659 3976 1060
21660 6239 3484
21661 4823 9728
21662 1238 2749
21663 5639 2513
21664 1438 8216
21665 7437 7225
21666 9490 5777
21667 1824 7057
21668 4552 8286
21669 3884 6154
21670 3160 3412
21671 2699 8877
21672 2200 5917
21673 9659 6409
21674 7248 5325
21675 5978 396 
21676 9990 7283
21677 2247 5761
21678 8188 1213
21679 205  5510
21680 9261 8541
21681 651  716 
21682 7667 4287
21683 7097 2353
21684 6165 7100
21685 5105 9205
21686 4553 5183
21687 4853 8672
21688 3266 6818
21689 5424 9971
21690 426  9086
21691 3295 1257
21692 4950 4635
21693 8540 5100
21694 3825 3827
21695 2235 2232
21696 8857 5787
21697 1890 7769
21698 113  9676
21699 4134 4586
21700 8855 1737
21701 2338 697 
21702 6370 3490
21703 27   5686
21704 611  6521
21705 2149 5202
21706 443  299 
21707 9197 4317
21708 7627 4722
21709 8918 3061
21710 6221 1391
21711 1160 7455
21712 591  9774
21713 4039 8162
21714 4568 5737
21715 5097 2017
21716 8252 4916
21717 3674 9193
21718 938  1646
21719 6364 7585
21720 7288 5665
21721 9827 1328
21722 2077 4911
21723 2187 2279
21724 3012 8243
21725 5478 3430
21726 2688 2956
21727 1267 376 
21728 9324 4097
21729 8193 8342
21730 1777 7559
21731 4584 1995
21732 2643 5540
21733 7970 9236
21734 2272 9950
21735 7717 4764
21736 8425 8238
21737 8338 6316
21738 4471 7551
21739 8401 3783
21740 5237 3483
21741 8976 8879
21742 3832 9270
21743 783  9038
21744 4147 3486
21745 7204 4871
21746 3291 4467
21747 8858 2729
21748 5106 6185
21749 3472 655 
21750 2871 5786
21751 806  5210
21752 6835 623 
21753 4784 8416
21754 3156 4497
21755 1695 4134
21756 9372 28  
21757 9300 1867
21758 9139 9004
21759 1972 2409
21760 1931 3628
21761 436  4077
21762 7332 2438
21763 8479 9070
21764 3313 7715
21765 3753 6651
21766 603  6663
21767 7967 6297
21768 9961 4268
21769 2407 9282
21770 2955 4327
21771 4375 7742
21772 4414 8911
21773 8677 7440
21774 683  1660
21775 7660 3347
21776 2322 9533
21777 3542 4791
21778 7929 5791
21779 7354 8438
21780 2943 9111
21781 5441 327 
21782 6034 6184
21783 306  7531
21784 1982 9350
21785 8490 9855
21786 2706 7757
21787 1843 6416
21788 9083 3830
21789 7853 2988
21790 5896 8480
21791 7525 999 
21792 8635 6278
21793 2666 5362
21794 8554 6679
21795 1503 3043
21796 4589 6463
21797 6439 7592
21798 2763 8881
21799 4810 4010
21800 1930 9383
21801 5373 4064
21802 8140 6974
21803 3139 6566
21804 4038 5185
21805 1181 1506
21806 7827 385 
21807 752  8327
21808 3103 1569
21809 3059 9567
21810 4866 5446
21811 1252 1068
21812 2677 2790
21813 4061 634 
21814 4412 8062
21815 8535 7210
21816 1934 9362
21817 7460 4123
21818 8970 1086
21819 6613 7189
21820 1123 1771
21821 6010 4137
21822 1381 9236
21823 6120 2184
21824 9112 6658
21825 3681 9692
21826 5333 8556
21827 5878 4192
21828 6953 1581
21829 4428 4738
21830 1948 3967
21831 5327 3967
21832 9632 4145
21833 1323 2007
21834 8523 6479
21835 4553 1944
21836 4665 7043
21837 1592 1088
21838 184  6473
21839 3402 6020
21840 4431 4320
21841 9686 5830
21842 5646 1406
21843 243  3376
21844 1920 4793
21845 8216 3995
21846 1958 2484
21847 5169 3225
21848 2249 191 
21849 605  5606
21850 2675 9543
21851 5284 6481
21852 3328 6507
21853 4023 7276
21854 334  4118
21855 1329 8903
21856 8204 8920
21857 6356 829 
21858 9749 1586
21859 5900 3797
21860 9516 1851
21861 5413 1874
21862 4459 4735
21863 2516 6442
21864 3192 4835
21865 9341 9037
21866 467  9334
21867 9288 2044
21868 6038 5532
21869 7233 6062
21870 6341 3872
21871 9149 334 
21872 9255 2850
21873 8388 8285
21874 2084 8115
21875 1042 6597
21876 1723 9348
21877 6815 7385
21878 1921 2668
21879 7971 9121
21880 5549 8655
21881 7192 1241
21882 7014 8879
21883 9545 4006
21884 2227 2229
21885 1752 5801
21886 3267 8940
21887 7055 3106
21888 6933 8993
21889 5216 750 
21890 3612 9620
21891 7217 5527
21892 7507 7969
21893 8455 2176
21894 1142 6423
21895 5515 8005
21896 8299 3607
21897 6965 4991
21898 4204 5195
21899 2333 5487
21900 9827 3660
21901 343  9596
21902 8388 2902
21903 8031 7134
21904 6046 1336
21905 3248 2576
21906 5187 4291
21907 6916 7666
21908 5073 1588
21909 9795 60  
21910 486  7512
21911 8525 1128
21912 7165 9421
21913 2145 3754
21914 6280 2448
21915 7577 6473
21916 7068 8888
21917 1082 6102
21918 4347 6445
21919 209  1314
21920 2995 1308
21921 5856 7994
21922 8315 9999
21923 6285 8442
21924 9153 7173
21925 1972 7609
21926 5864 6253
21927 729  3218
21928 7614 9908
21929 35   1537
21930 5088 2087
21931 1339 2033
21932 5750 1352
21933 2975 1109
21934 2431 1825
21935 6841 9605
21936 9141 7568
21937 347  197 
21938 5715 6112
21939 7886 4406
21940 7827 8348
21941 1327 3683
21942 4733 2262
21943 1022 9776
21944 8219 5001
21945 2797 4330
21946 7372 611 
21947 1296 1072
21948 5494 3702
21949 6462 5727
21950 4120 2903
21951 1537 8778
21952 8305 6212
21953 9019 3796
21954 3624 7190
21955 9475 7881
21956 2800 4239
21957 4236 272 
21958 1982 5741
21959 9127 9530
21960 1547 8197
21961 9862 9954
21962 6796 9028
21963 7141 6966
21964 9278 1668
21965 6510 2359
21966 9104 5804
21967 6401 8290
21968 5113 390 
21969 2574 2584
21970 9981 2656
21971 9311 5164
21972 4909 5361
21973 7640 8073
21974 8292 581 
21975 4873 2645
21976 9311 9647
21977 2856 1268
21978 7597 7165
21979 1691 4841
21980 455  7849
21981 3609 140 
21982 2555 2353
21983 4515 5917
21984 9415 5809
21985 1234 2618
21986 5451 8608
21987 1195 8524
21988 1135 3031
21989 9133 51  
21990 668  7661
21991 2010 8848
21992 1876 9542
21993 604  4391
21994 2524 5031
21995 6739 405 
21996 3647 358 
21997 9046 3234
21998 5246 9045
21999 3238 5734
22000 8707 1536
22001 8028 4786
22002 7270 9320
22003 2237 3489
22004 2084 6144
22005 1754 2389
22006 546  6537
22007 7201 6391
22008 8817 4394
22009 849  6301
22010 4773 6924
22011 5777 9918
22012 5417 6975
22013 3737 8617
22014 4735 7466
22015 5670 6473
22016 7639 5387
22017 7358 7496
22018 2173 246 
22019 246  2546
22020 473  7598
22021 5722 8977
22022 8385 5575
22023 7565 7689
22024 3897 7946
22025 3857 7763
22026 8589 9869
22027 7317 5418
22028 8535 1275
22029 85   4206
22030 6732 194 
22031 6255 9494
22032 4008 4148
22033 5660 8314
22034 4063 2891
22035 6241 6038
22036 6075 2040
22037 7296 9638
22038 9314 1935
22039 1310 5562
22040 9020 4977
22041 5441 4849
22042 65   1510
22043 8331 2680
22044 3831 6694
22045 5656 8436
22046 6905 1899
22047 5100 7444
22048 2457 365 
22049 4004 3914
22050 5233 678 
22051 8805 9099
22052 5459 3300
22053 9249 5905
22054 7989 739 
22055 9666 4311
22056 5423 5289
22057 3130 3758
22058 971  2562
22059 3446 8358
22060 9392 2350
22061 9020 8838
22062 637  6907
22063 5171 359 
22064 1108 9820
22065 7177 6975
22066 9195 792 
22067 1173 1041
22068 8274 2792
22069 1339 7433
22070 168  2202
22071 8497 4403
22072 4157 4818
22073 4170 7556
22074 3174 3912
22075 8518 3559
22076 9279 8790
22077 4178 1670
22078 4492 400 
22079 1877 1990
22080 6312 1104
22081 3699 3144
22082 9593 2699
22083 256  3316
22084 666  9302
22085 3328 1580
22086 1973 2500
22087 380  7227
22088 7459 6535
22089 704  5184
22090 5859 5443
22091 5379 3479
22092 1410 8751
22093 5535 7988
22094 4369 4462
22095 515  9979
22096 4305 1604
22097 6896 487 
22098 8572 2603
22099 4718 2299
22100 704  9355
22101 1911 2351
22102 932  7166
22103 278  5792
22104 8193 6337
22105 9903 1005
22106 7213 8771
22107 3511 6481
22108 6150 1450
22109 593  4767
22110 5061 5428
22111 3742 2046
22112 3702 7723
22113 7339 8207
22114 3533 3883
22115 6934 3757
22116 6270 5611
22117 3055 3693
22118 3815 699 
22119 6326 2064
22120 767  6705
22121 4274 1331
22122 9743 6185
22123 6436 2759
22124 7667 745 
22125 7313 6086
22126 9053 4851
22127 1003 2408
22128 9946 1482
22129 8523 1336
22130 4126 5825
22131 5569 4047
22132 6125 5542
22133 6960 27  
22134 5230 7354
22135 6875 6532
22136 4615 7819
22137 2588 3852
22138 5581 2488
22139 3360 9457
22140 8731 9543
22141 2535 9861
22142 1182 1996
22143 8040 9347
22144 2942 355 
22145 4689 4822
22146 2499 1882
22147 8145 28  
22148 8013 9896
22149 7499 8238
22150 7470 6133
22151 2000 5800
22152 5341 149 
22153 1711 5323
22154 6648 2936
22155 2174 3205
22156 2394 5749
22157 6622 7137
22158 6866 1334
22159 1197 198 
22160 2836 2886
22161 6384 3212
22162 6012 7140
22163 8824 1874
22164 4364 1504
22165 8845 9273
22166 979  2926
22167 6692 6256
22168 6919 6078
22169 3678 1587
22170 167  9590
22171 8531 1697
22172 2225 1380
22173 6185 4366
22174 4755 27  
22175 8157 8323
22176 6517 411 
22177 341  9633
22178 7717 7608
22179 5650 5351
22180 1394 4752
22181 4088 4675
22182 1953 8968
22183 5402 1348
22184 9095 5078
22185 7393 2433
22186 9169 8103
22187 8235 7973
22188 142  237 
22189 2459 3527
22190 7705 2990
22191 8180 2632
22192 5293 6174
22193 6781 3722
22194 3853 5499
22195 9626 7874
22196 5315 3781
22197 6189 8322
22198 8122 7035
22199 654  9797
22200 5684 4606
22201 3398 5654
22202 9205 4977
22203 7398 4442
22204 5140 1975
22205 7836 8043
22206 7940 9901
22207 7613 8429
22208 1041 7449
22209 274  5951
22210 7271 8491
22211 7292 487 
22212 7509 8236
22213 2300 2182
22214 154  3666
22215 6719 5707
22216 9984 8275
22217 6991 3403
22218 9206 3588
22219 8016 6998
22220 6821 352 
22221 5750 9340
22222 1668 7155
22223 8128 5945
22224 1770 5671
22225 6019 5578
22226 1582 9138
22227 5449 1334
22228 293  3129
22229 3735 6574
22230 1897 6788
22231 3642 1333
22232 6390 3377
22233 3981 6640
22234 5502 2340
22235 7020 2183
22236 6518 1028
22237 3758 9388
22238 3309 3091
22239 8684 9706
22240 987  6050
22241 1431 4158
22242 7045 9860
22243 5937 8454
22244 4390 840 
22245 6184 4727
22246 7768 3676
22247 5794 818 
22248 3211 575 
22249 9535 2099
22250 4400 6628
22251 7301 8781
22252 4653 3719
22253 8455 9194
22254 9946 6577
22255 5798 869 
22256 6161 3557
22257 6061 1485
22258 6295 8785
22259 3772 2743
22260 1763 1012
22261 424  3913
22262 1296 4566
22263 7111 8979
22264 5558 9138
22265 8934 7981
22266 8634 1457
22267 4241 282 
22268 3479 8281
22269 9048 5523
22270 9604 2790
22271 467  9617
22272 1559 553 
22273 9817 4218
22274 8513 2405
22275 5078 5833
22276 4539 5602
22277 3851 5362
22278 5422 9966
22279 9363 2588
22280 6707 2144
22281 944  5146
22282 690  7794
22283 8053 4147
22284 2341 8740
22285 7093 1077
22286 637  4872
22287 3138 1695
22288 7666 6436
22289 7876 9325
22290 9674 1979
22291 2960 9413
22292 5842 3631
22293 161  5775
22294 429  3870
22295 3780 747 
22296 1916 9458
22297 7896 6115
22298 8935 6896
22299 4782 4163
22300 3488 7837
22301 6929 9512
22302 7617 4195
22303 5018 7470
22304 578  1801
22305 9798 380 
22306 4985 3077
22307 7255 1262
22308 6884 8285
22309 7914 9224
22310 9127 1825
22311 9482 2352
22312 2777 864 
22313 1438 2853
22314 9400 1473
22315 5174 4877
22316 7823 3107
22317 137  3880
22318 7084 7652
22319 2313 1803
22320 5794 4163
22321 7916 7153
22322 4299 9838
22323 1141 5958
22324 5003 4431
22325 3655 7304
22326 9384 4556
22327 4571 6872
22328 1966 4344
22329 1984 6220
22330 5839 4907
22331 8662 4257
22332 3756 4896
22333 9974 9964
22334 46   9421
22335 5378 7914
22336 892  3426
22337 436  6844
22338 5459 204 
22339 2913 969 
22340 4255 9084
22341 5783 7934
22342 3931 112 
22343 3750 5659
22344 9219 1882
22345 2697 6743
22346 3692 8945
22347 5848 4194
22348 2997 6731
22349 3405 5758
22350 6708 1392
22351 6890 639 
22352 518  2349
22353 7087 6148
22354 1239 249 
22355 3000 3550
22356 5940 9622
22357 1277 4702
22358 5589 1527
22359 7402 9175
22360 6498 5838
22361 1049 982 
22362 3764 8880
22363 617  2280
22364 9783 8143
22365 2072 5910
22366 4932 4959
22367 6364 9310
22368 9406 8293
22369 2585 3785
22370 1396 7703
22371 4305 7590
22372 7566 7269
22373 1453 3428
22374 6627 7242
22375 2027 899 
22376 4496 8668
22377 5322 4660
22378 2143 7668
22379 7322 3152
22380 1832 5339
22381 3178 8790
22382 1908 5742
22383 2653 6854
22384 1886 2081
22385 4346 5312
22386 870  3233
22387 1612 5638
22388 8183 590 
22389 3532 9116
22390 4700 2258
22391 2292 7499
22392 5871 7786
22393 9069 294 
22394 7811 1118
22395 5150 9082
22396 7785 1570
22397 4926 5379
22398 1185 8174
22399 5373 2575
22400 2800 9937
22401 6953 6113
22402 81   7638
22403 6243 8646
22404 6301 1049
22405 8532 9074
22406 8117 6253
22407 5190 1605
22408 7251 2421
22409 3708 4017
22410 9723 3065
22411 7417 5421
22412 8908 4490
22413 9953 9346
22414 5136 8395
22415 9007 4205
22416 6571 8036
22417 5079 5173
22418 283  6844
22419 1750 6910
22420 1401 2655
22421 8468 2965
22422 21   989 
22423 4144 7791
22424 2566 4114
22425 7109 7997
22426 1489 1362
22427 511  902 
22428 6585 8594
22429 9468 1641
22430 4446 8381
22431 7461 7225
22432 7185 4122
22433 3412 7001
22434 1827 6327
22435 4374 2569
22436 5299 3720
22437 257  6133
22438 183  6003
22439 8349 9905
22440 2334 1914
22441 1380 8464
22442 3894 7026
22443 340  722 
22444 303  9221
22445 7540 3342
22446 5804 609 
22447 3492 3822
22448 1931 6013
22449 5926 8857
22450 480  9097
22451 9843 8606
22452 8714 3691
22453 5543 7116
22454 2327 1526
22455 1712 3048
22456 5524 8564
22457 8348 2721
22458 5231 2162
22459 15   6921
22460 3049 1523
22461 7923 5266
22462 2720 5152
22463 6047 9693
22464 7803 4088
22465 618  5712
22466 6211 7575
22467 1028 4269
22468 5205 2436
22469 5659 2787
22470 1649 9961
22471 3619 2014
22472 6702 7194
22473 671  6857
22474 3261 3786
22475 3691 9390
22476 7908 930 
22477 8807 7421
22478 1700 7899
22479 4554 8629
22480 8054 7538
22481 1399 7374
22482 8658 3026
22483 5441 6538
22484 9124 9492
22485 3016 6037
22486 8308 4356
22487 2917 8543
22488 1403 8494
22489 8750 4294
22490 3607 4771
22491 7485 6949
22492 9920 7382
22493 3672 637 
22494 2678 9773
22495 4747 1701
22496 5785 9234
22497 5695 7813
22498 5769 7939
22499 3399 5939
22500 4406 9566
22501 5860 842 
22502 6567 8206
22503 3173 6   
22504 8872 822 
22505 7029 4610
22506 4079 38  
22507 1330 5441
22508 3288 767 
22509 7115 42  
22510 2192 3560
22511 2508 402 
22512 9530 2844
22513 7201 8260
22514 776  6410
22515 2523 7396
22516 2831 5927
22517 2177 1987
22518 4491 2718
22519 9544 5164
22520 2243 9929
22521 9165 4605
22522 1593 3522
22523 3476 3285
22524 6150 3388
22525 2393 6446
22526 9912 1825
22527 1693 4857
22528 9260 8137
22529 7865 796 
22530 8374 1876
22531 8063 58  
22532 5477 9422
22533 6164 6125
22534 4213 8820
22535 3254 3991
22536 4716 2830
22537 2117 6897
22538 5149 3734
22539 9311 1528
22540 5944 1942
22541 3881 2228
22542 3570 1263
22543 6750 5716
22544 2677 2179
22545 771  2361
22546 9514 3332
22547 7499 3000
22548 5246 6214
22549 6348 3618
22550 4930 6903
22551 6370 8101
22552 5076 2385
22553 5615 6093
22554 9755 398 
22555 1080 5852
22556 5086 7094
22557 7749 8980
22558 4103 6737
22559 4170 6623
22560 1183 1737
22561 197  1286
22562 8298 7544
22563 9114 5299
22564 6932 8886
22565 8923 8208
22566 5168 9910
22567 4172 2546
22568 2815 5261
22569 8485 9871
22570 9040 9582
22571 8336 6622
22572 8035 8897
22573 132  9243
22574 6808 7940
22575 7003 4330
22576 4201 8697
22577 3632 4583
22578 8273 7539
22579 5787 9819
22580 8120 1447
22581 4325 9112
22582 7860 2833
22583 7749 3970
22584 6855 1283
22585 3265 2264
22586 9594 8603
22587 787  9836
22588 8810 7777
22589 2421 1771
22590 2947 1157
22591 4472 6302
22592 5191 6627
22593 9804 5268
22594 5656 9691
22595 3091 974 
22596 4923 781 
22597 3505 5029
22598 1224 952 
22599 6707 5403
22600 435  2203
22601 7579 9924
22602 4558 6510
22603 8160 1730
22604 7341 8258
22605 8952 8829
22606 4468 4931
22607 7327 8435
22608 7859 3716
22609 4756 5565
22610 8674 5984
22611 4935 9776
22612 5544 9277
22613 1615 4019
22614 1092 5024
22615 6533 6217
22616 7588 4100
22617 8871 7481
22618 1358 719 
22619 9449 1925
22620 6407 4573
22621 6001 8861
22622 3122 9288
22623 2029 6015
22624 1322 9974
22625 2088 5540
22626 2046 8801
22627 1143 4266
22628 5795 1965
22629 9227 4264
22630 7073 1316
22631 2586 1794
22632 9691 1827
22633 7401 4832
22634 2211 5475
22635 5118 8590
22636 1454 6585
22637 1803 1975
22638 6235 3755
22639 4017 8326
22640 8307 5315
22641 1829 8452
22642 1637 8657
22643 5131 4253
22644 4834 9477
22645 844  7175
22646 6918 5122
22647 3612 8450
22648 8009 765 
22649 7561 3211
22650 9377 7637
22651 2827 1543
22652 948  4474
22653 1341 9365
22654 9167 2529
22655 4350 6059
22656 7065 6203
22657 1832 1799
22658 9031 4410
22659 2869 2174
22660 9019 2988
22661 4478 3600
22662 3647 9890
22663 2788 7507
22664 9604 1934
22665 5669 3609
22666 5155 3999
22667 2221 7475
22668 2970 7783
22669 5267 4650
22670 5610 7203
22671 3968 2850
22672 4822 5206
22673 959  201 
22674 5820 4393
22675 6544 719 
22676 8929 2282
22677 9767 6204
22678 475  8061
22679 5624 8082
22680 2867 5734
22681 6843 2623
22682 4668 7463
22683 3907 2769
22684 1588 7543
22685 8404 5506
22686 2254 82  
22687 6822 4214
22688 691  2807
22689 8792 6483
22690 3754 9969
22691 7169 1677
22692 6561 7440
22693 1196 9752
22694 4656 7612
22695 6573 7329
22696 7042 3696
22697 3492 2349
22698 7142 889 
22699 5146 8780
22700 2397 7538
22701 2953 2388
22702 3946 8522
22703 9998 2948
22704 2899 8593
22705 3177 3975
22706 8135 2101
22707 6065 7   
22708 7607 7804
22709 1204 3682
22710 5914 3613
22711 584  9622
22712 6059 3065
22713 8915 2418
22714 9629 7891
22715 5462 7827
22716 7828 7081
22717 9557 8241
22718 6862 7618
22719 6355 9768
22720 2259 4754
22721 6618 8480
22722 6636 1548
22723 56   3493
22724 8973 8305
22725 290  7126
22726 8315 6952
22727 5094 8652
22728 8130 9902
22729 1371 2464
22730 5983 8134
22731 9227 4574
22732 9997 5294
22733 3806 9131
22734 440  5357
22735 5531 1481
22736 8085 6647
22737 8637 942 
22738 9997 8856
22739 9472 5145
22740 6255 8670
22741 1297 9534
22742 3153 7351
22743 5965 8692
22744 4630 1918
22745 8482 5607
22746 3723 420 
22747 1787 121 
22748 3189 4738
22749 8543 122 
22750 5598 8732
22751 3915 4853
22752 6840 6177
22753 9078 2112
22754 9481 12  
22755 2079 6762
22756 2031 5991
22757 7915 8568
22758 5471 4545
22759 1003 4612
22760 2150 6314
22761 3638 2313
22762 6087 8677
22763 7022 302 
22764 1211 2205
22765 1000 5293
22766 5182 1484
22767 2328 4904
22768 9187 6297
22769 5353 9601
22770 9229 2384
22771 15   2057
22772 3815 7298
22773 3518 9165
22774 21   2825
22775 228  9186
22776 4326 4367
22777 5865 4089
22778 189  2280
22779 3250 7847
22780 8095 3931
22781 1154 8333
22782 5721 1518
22783 3198 8402
22784 8038 4454
22785 6342 3648
22786 4484 5008
22787 8883 6200
22788 4640 5861
22789 6659 7571
22790 2752 354 
22791 6812 6235
22792 5120 1121
22793 9396 5452
22794 5699 7734
22795 6215 6758
22796 8362 3268
22797 5711 1557
22798 7611 4625
22799 1485 8958
22800 9357 6453
22801 398  3005
22802 1560 9350
22803 4757 5399
22804 314  8138
22805 1199 5299
22806 1287 1359
22807 7072 3353
22808 5008 6441
22809 8619 3830
22810 6748 1154
22811 2503 8030
22812 863  8813
22813 2890 7093
22814 3580 8699
22815 6050 7933
22816 1018 4289
22817 6982 9286
22818 9382 9364
22819 9696 6214
22820 8339 8810
22821 3707 5532
22822 180  3856
22823 3762 4266
22824 6089 5147
22825 4152 5221
22826 8267 3331
22827 6811 7959
22828 2853 6648
22829 4566 3310
22830 987  7942
22831 5591 9038
22832 9315 7288
22833 8519 1167
22834 4303 5305
22835 4289 5136
22836 1545 4072
22837 5179 6163
22838 6039 5769
22839 2403 3261
22840 8085 3122
22841 2641 4177
22842 8615 8130
22843 7282 4298
22844 1871 1101
22845 4398 9854
22846 9311 8137
22847 6764 9306
22848 7113 1711
22849 7248 8957
22850 1320 2355
22851 913  6619
22852 7217 2378
22853 6167 4937
22854 8593 178 
22855 9211 9711
22856 9887 7600
22857 5551 3152
22858 521  6278
22859 4899 5349
22860 9177 6481
22861 5475 5069
22862 6131 9255
22863 7559 8306
22864 9011 2   
22865 2386 2770
22866 8763 3421
22867 3203 3235
22868 2850 2121
22869 1681 3936
22870 859  7545
22871 682  1446
22872 6001 8798
22873 1989 8500
22874 4315 9931
22875 2751 8165
22876 6507 7689
22877 602  1468
22878 2851 3038
22879 7619 5941
22880 7511 9282
22881 3061 3813
22882 9031 4554
22883 9003 4326
22884 6221 3531
22885 7439 347 
22886 9997 6927
22887 9153 1282
22888 1502 948 
22889 2859 9609
22890 9924 6679
22891 4137 8388
22892 1569 2432
22893 4022 6573
22894 8590 6611
22895 5536 178 
22896 7409 1410
22897 6979 4755
22898 6957 8841
22899 987  9865
22900 5635 6843
22901 6447 8859
22902 2330 4021
22903 6584 2440
22904 115  2690
22905 4850 9579
22906 9908 7152
22907 3540 8186
22908 2967 1660
22909 9929 439 
22910 9311 9304
22911 7837 4152
22912 1722 2378
22913 5309 4814
22914 7931 6236
22915 8011 8904
22916 7783 4013
22917 18   731 
22918 809  252 
22919 9539 1781
22920 777  1194
22921 2743 5518
22922 2777 8059
22923 7047 9904
22924 2978 6998
22925 3317 3562
22926 2088 2695
22927 7836 4327
22928 9108 6133
22929 4844 4844
22930 2080 6687
22931 330  8305
22932 4439 1873
22933 994  1653
22934 8874 4857
22935 4922 3749
22936 2076 9836
22937 6069 4206
22938 4543 5596
22939 6477 8940
22940 3584 9550
22941 9004 3879
22942 7111 440 
22943 6712 7147
22944 4197 9832
22945 3101 7775
22946 553  3697
22947 5463 5766
22948 7045 1788
22949 7421 9210
22950 8914 8655
22951 352  6552
22952 5536 6188
22953 7272 1732
22954 7051 8676
22955 3839 3822
22956 5749 1047
22957 6111 1936
22958 5950 6775
22959 2111 6459
22960 2811 5816
22961 5796 8942
22962 4098 7543
22963 5686 5350
22964 5362 450 
22965 6604 6794
22966 8329 2458
22967 5494 7894
22968 1866 1657
22969 3679 602 
22970 6460 8981
22971 4957 9505
22972 8799 1972
22973 137  6470
22974 1273 9110
22975 464  8076
22976 2632 8782
22977 1483 9323
22978 4037 8133
22979 6017 3311
22980 6507 2944
22981 2918 5530
22982 5404 2942
22983 3255 2237
22984 4232 7466
22985 1280 7025
22986 8798 5593
22987 2559 8252
22988 1513 8643
22989 7708 7862
22990 4052 1011
22991 8933 2747
22992 4337 7393
22993 7326 6877
22994 2186 9202
22995 7421 4597
22996 4336 1627
22997 4993 488 
22998 6415 5523
22999 3993 5768
23000 2052 8991
23001 8162 452 
23002 3986 7414
23003 4015 4920
23004 5382 8648
23005 7448 4977
23006 136  3179
23007 5521 6539
23008 7118 6118
23009 420  3319
23010 2480 9721
23011 2676 2529
23012 8420 2734
23013 2360 9658
23014 3095 8994
23015 1226 9487
23016 5419 5633
23017 1198 9385
23018 4592 113 
23019 1623 5662
23020 2822 3004
23021 9448 8192
23022 6743 7643
23023 7315 1226
23024 3510 6049
23025 9416 7333
23026 1334 5859
23027 8308 685 
23028 8964 8038
23029 8038 5917
23030 1711 576 
23031 9635 7998
23032 9865 4286
23033 3839 7234
23034 9654 8412
23035 2733 918 
23036 7575 1054
23037 6380 9204
23038 2984 9087
23039 1228 8920
23040 8302 1825
23041 8988 5583
23042 1444 7180
23043 6422 6310
23044 2447 5173
23045 9773 5264
23046 3101 7073
23047 6676 8868
23048 8493 7029
23049 1772 5249
23050 3930 470 
23051 5395 2689
23052 4952 1109
23053 6048 4150
23054 6266 7135
23055 7285 1264
23056 4667 1855
23057 4240 6355
23058 1373 2756
23059 1486 6557
23060 6856 2008
23061 6555 4050
23062 2335 8400
23063 1100 787 
23064 8552 1182
23065 7487 9217
23066 2581 3534
23067 7957 1398
23068 5671 8315
23069 5718 4634
23070 9967 9569
23071 6300 3893
23072 319  2370
23073 2904 3734
23074 114  84  
23075 490  8816
23076 6147 5630
23077 1830 7843
23078 4118 2299
23079 4606 3351
23080 1273 5658
23081 6086 9209
23082 7624 4091
23083 3420 647 
23084 4890 2291
23085 5308 3474
23086 3869 7826
23087 9474 3508
23088 8664 941 
23089 4281 4360
23090 4397 4042
23091 1143 5267
23092 62   9914
23093 821  598 
23094 6402 7712
23095 874  532 
23096 5099 7214
23097 5539 4445
23098 6798 7753
23099 7018 4235
23100 6187 7988
23101 9538 108 
23102 4439 7259
23103 5155 5914
23104 9819 1646
23105 7089 7350
23106 9837 1918
23107 9232 1169
23108 6973 2588
23109 9073 1629
23110 2295 8745
23111 5990 9763
23112 831  5655
23113 7335 1547
23114 6468 7954
23115 4845 2145
23116 1065 8970
23117 4526 4032
23118 9642 3680
23119 2155 7090
23120 7402 3625
23121 4914 4161
23122 726  9109
23123 3149 4259
23124 840  4363
23125 8708 1208
23126 6954 7682
23127 632  8083
23128 524  1812
23129 7965 6546
23130 1101 3399
23131 2434 305 
23132 6520 3079
23133 2459 8766
23134 7164 7138
23135 4658 8732
23136 7577 3233
23137 8083 9308
23138 5758 4811
23139 7415 3180
23140 2051 7472
23141 1339 1283
23142 2590 27  
23143 397  3117
23144 3754 1130
23145 1724 8989
23146 3345 4875
23147 6151 7090
23148 1588 3613
23149 9867 2843
23150 2292 1114
23151 6129 8457
23152 410  7668
23153 267  5157
23154 6778 4092
23155 8658 3629
23156 1195 4096
23157 3692 1962
23158 3028 1819
23159 7259 3290
23160 5588 8757
23161 5815 4003
23162 7533 5224
23163 7495 8488
23164 1359 1391
23165 4952 5756
23166 618  8240
23167 8831 8335
23168 8117 1960
23169 9556 3325
23170 7446 200 
23171 9534 3557
23172 5616 9038
23173 5862 2084
23174 6435 6804
23175 6147 459 
23176 7144 3871
23177 1021 3286
23178 5115 3938
23179 1365 6138
23180 437  1206
23181 3672 1669
23182 156  8163
23183 8994 5600
23184 75   4782
23185 7887 6958
23186 8457 5798
23187 8237 6966
23188 5843 6271
23189 8387 5849
23190 2447 6986
23191 3503 3645
23192 832  9861
23193 4176 4250
23194 7429 9504
23195 2132 4539
23196 893  7815
23197 6685 5107
23198 9195 5817
23199 2534 7471
23200 2223 4729
23201 111  9273
23202 4330 8729
23203 7098 546 
23204 7242 4338
23205 1316 1621
23206 3398 3985
23207 5300 9390
23208 7492 2825
23209 6410 8115
23210 4559 2374
23211 6742 2539
23212 1618 2847
23213 3083 5193
23214 5112 7006
23215 2630 6588
23216 3574 3215
23217 1754 1484
23218 8061 9862
23219 7702 4099
23220 6927 7543
23221 7565 24  
23222 9580 6693
23223 4899 6055
23224 6198 4380
23225 3106 4597
23226 4485 6866
23227 4746 4602
23228 8741 1224
23229 2041 6807
23230 1811 5234
23231 4732 2154
23232 3332 8237
23233 8885 6725
23234 4942 3964
23235 4012 623 
23236 7239 666 
23237 1658 3491
23238 280  4144
23239 5406 7325
23240 3668 4487
23241 5339 3242
23242 4051 5753
23243 3225 5569
23244 3927 1747
23245 3381 2095
23246 6192 4351
23247 2786 5675
23248 1684 3550
23249 4123 1508
23250 834  6914
23251 2079 2026
23252 4764 1119
23253 1598 271 
23254 1169 9144
23255 1854 7472
23256 5920 6462
23257 9813 300 
23258 420  7560
23259 8218 3670
23260 2073 8812
23261 7993 4653
23262 164  4825
23263 4635 9897
23264 8241 4879
23265 3387 3503
23266 4591 8384
23267 1309 4288
23268 3291 6972
23269 3960 8814
23270 3125 2865
23271 8118 9341
23272 6790 6436
23273 4581 6250
23274 2097 7420
23275 991  1922
23276 1145 6319
23277 1531 421 
23278 8388 9632
23279 6590 7468
23280 5183 6825
23281 3391 4302
23282 9398 1713
23283 6567 9805
23284 8873 4214
23285 6162 4186
23286 4256 5515
23287 8118 9913
23288 8363 4913
23289 8350 1594
23290 3871 297 
23291 8810 4135
23292 1303 9206
23293 1013 9858
23294 6495 7162
23295 8596 8464
23296 3945 5083
23297 1076 2200
23298 4874 8326
23299 7490 6614
23300 7676 44  
23301 3830 650 
23302 4285 8779
23303 6161 6146
23304 3924 8106
23305 6478 5644
23306 7091 3319
23307 2979 9636
23308 4622 4936
23309 5167 1723
23310 5805 3980
23311 5521 7045
23312 9129 8463
23313 3874 5153
23314 2811 7047
23315 8312 873 
23316 2940 9860
23317 609  7350
23318 2171 5420
23319 8131 5739
23320 4953 6702
23321 3215 4901
23322 9791 639 
23323 3997 3634
23324 9520 5981
23325 4547 1638
23326 7242 3607
23327 9106 7370
23328 7099 5057
23329 7607 4017
23330 1790 5308
23331 8254 8312
23332 5188 7151
23333 3121 3583
23334 1932 5118
23335 9082 5779
23336 2672 1808
23337 2738 2934
23338 5428 5378
23339 8837 32  
23340 9526 9721
23341 7606 397 
23342 1014 5430
23343 9313 5645
23344 3468 5598
23345 6862 4768
23346 2342 502 
23347 9462 5716
23348 4107 7755
23349 6810 6207
23350 2803 3980
23351 1772 7454
23352 2313 7550
23353 2101 2683
23354 1758 8884
23355 9332 8778
23356 5042 4587
23357 2139 8374
23358 2626 9478
23359 8159 8487
23360 1005 5454
23361 1381 9356
23362 3062 4644
23363 1669 8527
23364 8951 1101
23365 6831 5327
23366 5677 3544
23367 5323 8963
23368 9720 9337
23369 3551 89  
23370 4749 6846
23371 133  2280
23372 9596 6213
23373 9909 8724
23374 6843 8378
23375 7182 2608
23376 7889 3896
23377 7006 8351
23378 2180 3993
23379 9926 7931
23380 618  8256
23381 9443 7812
23382 8649 750 
23383 2664 8514
23384 5671 2561
23385 4614 4310
23386 8766 638 
23387 7648 9603
23388 6864 7570
23389 8291 2551
23390 4110 9337
23391 4509 8820
23392 2436 4279
23393 1077 3909
23394 849  1426
23395 6193 3155
23396 6648 6468
23397 5324 2776
23398 5673 5425
23399 2877 7129
23400 2710 9151
23401 3316 7163
23402 5126 4590
23403 862  59  
23404 8593 2579
23405 2682 9684
23406 1666 3115
23407 8997 6162
23408 8329 4829
23409 7909 2196
23410 9093 1851
23411 2007 8635
23412 6771 7681
23413 7522 4263
23414 1710 8043
23415 5421 2028
23416 9723 5358
23417 535  2365
23418 1605 3644
23419 2219 2470
23420 5816 4628
23421 7656 408 
23422 3001 1988
23423 1861 2087
23424 5619 7736
23425 5533 8324
23426 4333 3220
23427 8436 876 
23428 6278 778 
23429 2640 162 
23430 4056 1700
23431 3122 1818
23432 9554 592 
23433 982  4679
23434 5398 9409
23435 1534 103 
23436 5339 7900
23437 5186 8539
23438 4630 1169
23439 771  8104
23440 174  4238
23441 9501 6278
23442 395  4348
23443 993  1297
23444 1849 6535
23445 7447 7476
23446 3235 1925
23447 6249 4571
23448 5408 6260
23449 1338 278 
23450 9143 8599
23451 2051 2024
23452 30   8281
23453 1606 5786
23454 5301 9427
23455 4122 7032
23456 1873 3389
23457 600  4962
23458 4591 5796
23459 5455 6323
23460 3591 6326
23461 4061 8559
23462 2205 569 
23463 3040 1756
23464 603  1562
23465 2697 3206
23466 8915 8766
23467 3949 1664
23468 6349 140 
23469 8885 3631
23470 8310 1687
23471 260  742 
23472 4172 3097
23473 7127 1731
23474 1511 9661
23475 8300 1974
23476 4187 3200
23477 4342 1304
23478 247  3476
23479 9619 5953
23480 1570 9979
23481 7817 470 
23482 3961 4263
23483 6869 8848
23484 1021 67  
23485 37   7552
23486 3284 943 
23487 2216 9317
23488 7625 1177
23489 4872 4611
23490 3174 4562
23491 5653 7702
23492 8880 2979
23493 2285 260 
23494 4700 9423
23495 4132 8693
23496 9915 1814
23497 3090 4714
23498 8752 4364
23499 7857 1372
23500 1794 340 
23501 911  380 
23502 7128 9037
23503 3382 6566
23504 1421 6558
23505 8051 4331
23506 1379 7001
23507 7247 8341
23508 8597 8211
23509 8346 8175
23510 642  8008
23511 9472 7314
23512 5576 9194
23513 2715 2282
23514 1096 7592
23515 425  2733
23516 7800 6929
23517 1396 5941
23518 2247 8653
23519 2491 388 
23520 3532 4446
23521 5073 4954
23522 4639 4544
23523 5839 1667
23524 1544 2292
23525 1108 2067
23526 1999 2864
23527 5769 954 
23528 6832 8061
23529 3653 2349
23530 3911 6174
23531 7238 8603
23532 630  5281
23533 204  6350
23534 1891 5014
23535 5143 223 
23536 7592 4481
23537 9268 2370
23538 5461 8168
23539 9748 9416
23540 9552 7500
23541 4142 9500
23542 4010 6832
23543 6589 438 
23544 8233 5597
23545 2609 9101
23546 8242 5982
23547 2854 3918
23548 4726 1208
23549 2012 6032
23550 9524 4309
23551 5210 1405
23552 6481 4798
23553 8357 5721
23554 714  8096
23555 4984 7734
23556 7280 4688
23557 4145 7069
23558 8746 2619
23559 637  153 
23560 2005 2584
23561 2563 971 
23562 1287 2750
23563 1682 5053
23564 3764 137 
23565 3037 5496
23566 8630 2204
23567 4719 485 
23568 4311 9910
23569 866  9470
23570 6278 1592
23571 2985 4327
23572 6678 8167
23573 7662 4256
23574 6125 5480
23575 8656 9839
23576 4720 2481
23577 8756 7415
23578 5884 4061
23579 2961 2676
23580 7195 3856
23581 62   7525
23582 5635 4420
23583 2157 4750
23584 7381 6369
23585 2020 4804
23586 9360 9922
23587 9443 9907
23588 392  4103
23589 8651 8007
23590 1338 1531
23591 3076 4548
23592 8570 6349
23593 6078 6918
23594 6756 8457
23595 3292 4329
23596 6354 8026
23597 2859 2298
23598 8396 6155
23599 2817 6786
23600 4616 6798
23601 7994 5302
23602 9144 6117
23603 7210 7545
23604 9553 1724
23605 1666 5737
23606 5201 223 
23607 5644 9272
23608 6420 6926
23609 6043 4595
23610 1725 6848
23611 6059 9567
23612 1502 5993
23613 8866 478 
23614 9274 451 
23615 8464 2522
23616 853  231 
23617 3243 3251
23618 8058 4911
23619 324  6739
23620 20   3800
23621 2192 6846
23622 5936 9116
23623 3711 7803
23624 9942 2312
23625 2938 8845
23626 7587 3707
23627 1091 6885
23628 7022 7051
23629 365  623 
23630 1685 8130
23631 7426 766 
23632 1040 8832
23633 5723 1445
23634 7699 7883
23635 6710 4084
23636 4450 1333
23637 8961 2668
23638 9390 9854
23639 5075 3623
23640 2048 2616
23641 3540 7645
23642 2360 5878
23643 4167 7901
23644 1442 9220
23645 2115 4921
23646 344  722 
23647 7484 4558
23648 3380 4744
23649 9302 4060
23650 1992 8227
23651 8168 5407
23652 3758 840 
23653 4580 970 
23654 2996 7660
23655 1537 6806
23656 2633 8386
23657 6134 9787
23658 5263 4574
23659 7636 9666
23660 745  2409
23661 8998 7203
23662 191  5499
23663 5872 3833
23664 4817 3598
23665 7843 8891
23666 5619 9867
23667 2909 1019
23668 3267 7589
23669 1997 8417
23670 1171 2034
23671 9645 217 
23672 3545 8504
23673 2561 6267
23674 1791 954 
23675 9606 6552
23676 5366 5478
23677 8630 385 
23678 9586 5451
23679 297  1766
23680 552  2597
23681 184  6620
23682 3170 1951
23683 8742 8737
23684 5953 5582
23685 5990 2330
23686 6308 9181
23687 3970 8380
23688 686  4582
23689 1036 3512
23690 9290 1504
23691 2299 3965
23692 5512 2361
23693 8694 5241
23694 2588 1151
23695 3466 3441
23696 8899 2248
23697 4905 2960
23698 3482 299 
23699 8908 9469
23700 6417 9197
23701 975  4855
23702 2527 595 
23703 6607 7683
23704 9429 1789
23705 9364 8403
23706 8167 4982
23707 7370 822 
23708 6336 5633
23709 6614 1583
23710 9948 4278
23711 5731 8585
23712 2954 6740
23713 6957 9864
23714 7844 9278
23715 7    5443
23716 6827 7247
23717 2792 2583
23718 8733 6014
23719 7078 9692
23720 5286 6307
23721 739  4937
23722 6339 1255
23723 4712 8022
23724 1749 3811
23725 4999 4478
23726 6784 7774
23727 7751 2582
23728 8453 4194
23729 3615 970 
23730 1014 6260
23731 5939 4572
23732 454  4134
23733 8686 6878
23734 6709 8803
23735 8958 6891
23736 3918 4161
23737 8417 2835
23738 5949 8931
23739 8769 1495
23740 7108 4593
23741 6622 2506
23742 5559 4090
23743 7335 8913
23744 4541 2852
23745 331  1683
23746 4900 5660
23747 8946 6252
23748 7893 3073
23749 9654 5587
23750 2532 2238
23751 8762 9817
23752 3988 1027
23753 3082 8403
23754 8863 2416
23755 1730 4677
23756 9929 5659
23757 2823 117 
23758 6147 9620
23759 2804 9193
23760 1208 5579
23761 6230 6457
23762 8715 5951
23763 7544 7418
23764 1586 5690
23765 1929 7211
23766 9188 4739
23767 6533 6646
23768 5740 6083
23769 3120 3761
23770 6547 338 
23771 9154 1683
23772 7869 4274
23773 7492 8211
23774 3291 9098
23775 7150 6863
23776 6098 316 
23777 2130 8095
23778 1069 9579
23779 8447 2429
23780 7500 2830
23781 403  2264
23782 3924 1325
23783 4655 9506
23784 3284 3444
23785 1987 6782
23786 6218 5851
23787 7146 9623
23788 3522 8463
23789 6080 6407
23790 3489 1618
23791 1133 8872
23792 89   2018
23793 9215 576 
23794 2697 2843
23795 9669 171 
23796 3224 4600
23797 4764 9670
23798 757  3033
23799 6224 8317
23800 3923 1688
23801 6708 8615
23802 3774 4382
23803 6354 4863
23804 8988 6938
23805 5739 4370
23806 4048 7000
23807 2099 8875
23808 601  8573
23809 3469 5549
23810 1159 9946
23811 4090 9789
23812 4039 7044
23813 5829 9755
23814 3489 2368
23815 9467 5877
23816 5878 5509
23817 5618 3070
23818 7975 3194
23819 1372 2941
23820 2540 2426
23821 8703 5956
23822 9143 3387
23823 3973 8616
23824 1653 5121
23825 5253 8717
23826 2926 2349
23827 4472 7619
23828 9807 1190
23829 2925 2642
23830 1063 842 
23831 8293 5921
23832 4196 1855
23833 9808 4696
23834 3517 5978
23835 3204 572 
23836 5494 589 
23837 3248 7876
23838 3954 5307
23839 4129 271 
23840 7342 8986
23841 5109 1094
23842 8775 299 
23843 7574 1176
23844 9179 2319
23845 321  5391
23846 8403 417 
23847 3614 6336
23848 2362 3840
23849 6913 6862
23850 4411 1456
23851 3139 9616
23852 6295 382 
23853 6540 9376
23854 6350 346 
23855 1194 6292
23856 7805 6246
23857 6970 1903
23858 8026 1108
23859 8943 6915
23860 1303 8820
23861 8952 1454
23862 989  2861
23863 1665 8519
23864 5062 4837
23865 4294 3699
23866 7282 3075
23867 7851 2632
23868 7308 9466
23869 7553 4718
23870 8804 5709
23871 133  8220
23872 7671 8921
23873 3261 9190
23874 2619 6446
23875 1398 1584
23876 5745 4984
23877 6966 7655
23878 1850 9220
23879 2447 5292
23880 5400 2045
23881 2965 1600
23882 7360 4761
23883 5539 2122
23884 1282 8654
23885 9065 4314
23886 5162 9829
23887 8017 2441
23888 8040 7265
23889 2770 6970
23890 1694 3153
23891 1185 5894
23892 4160 2346
23893 2191 2734
23894 1866 3714
23895 1027 120 
23896 9958 8142
23897 9157 1476
23898 1746 1196
23899 5232 489 
23900 66   6261
23901 1961 3671
23902 4409 3994
23903 4451 7007
23904 5992 5863
23905 4033 4628
23906 3220 8493
23907 3699 2281
23908 4435 2479
23909 3778 2467
23910 2328 7617
23911 532  6306
23912 8763 173 
23913 3192 4375
23914 1067 4920
23915 848  4722
23916 384  1473
23917 834  5990
23918 6598 1702
23919 9167 5409
23920 5515 8314
23921 5215 8309
23922 2102 3008
23923 9414 9587
23924 6396 3356
23925 4244 9693
23926 5364 1831
23927 4505 6414
23928 3181 6109
23929 2001 7065
23930 3784 8944
23931 5127 7817
23932 8254 5064
23933 1761 4197
23934 3527 522 
23935 2750 845 
23936 8271 8951
23937 3051 2198
23938 9452 4753
23939 8886 1310
23940 8949 4174
23941 2801 7484
23942 2790 8459
23943 8938 3925
23944 565  6534
23945 2946 6456
23946 990  377 
23947 6963 6332
23948 4409 2048
23949 2579 803 
23950 5089 6070
23951 6991 9972
23952 2755 7607
23953 1448 1931
23954 9158 223 
23955 1476 5850
23956 9166 7913
23957 8426 7621
23958 1901 7652
23959 375  6518
23960 879  359 
23961 4618 100 
23962 3499 350 
23963 4455 2561
23964 9025 8932
23965 429  1169
23966 8600 7235
23967 103  682 
23968 1535 1593
23969 4478 4562
23970 7642 2868
23971 5917 2996
23972 5186 1982
23973 5262 9990
23974 9999 7624
23975 8198 791 
23976 194  3044
23977 9508 5960
23978 110  5075
23979 6172 3562
23980 6847 1390
23981 7456 2931
23982 2098 5916
23983 9328 8175
23984 7750 2000
23985 7969 8660
23986 4003 6587
23987 4584 5064
23988 8160 8836
23989 8552 5316
23990 7519 4500
23991 5699 2225
23992 1276 5829
23993 7289 639 
23994 6693 5105
23995 2046 4444
23996 9288 6909
23997 2862 9230
23998 2321 2701
23999 6146 4359
24000 4646 4297
24001 7421 4627
24002 7500 2778
24003 9763 6430
24004 1839 1799
24005 4074 8864
24006 427  1226
24007 2917 5253
24008 906  3985
24009 6782 1289
24010 2275 148 
24011 8607 5146
24012 4928 4075
24013 6706 585 
24014 3926 6598
24015 5257 6235
24016 9219 4985
24017 48   9834
24018 7497 2511
24019 193  954 
24020 5892 9411
24021 3972 5181
24022 5612 6042
24023 9123 9982
24024 1986 8697
24025 5369 4098
24026 6972 7098
24027 8484 7178
24028 1933 3256
24029 2092 3097
24030 4450 9795
24031 5137 6902
24032 828  5728
24033 9215 2239
24034 8142 7108
24035 5281 27  
24036 3742 9224
24037 3373 9883
24038 8638 3769
24039 1481 1395
24040 3415 2674
24041 1806 9258
24042 5617 9193
24043 6281 5665
24044 3212 4780
24045 7349 7177
24046 9000 8798
24047 7413 7719
24048 9218 8314
24049 9403 9280
24050 6673 681 
24051 6583 9673
24052 5189 8405
24053 7353 596 
24054 5021 9827
24055 1666 1159
24056 4946 7941
24057 874  5453
24058 476  393 
24059 1258 6188
24060 5952 6700
24061 7467 1866
24062 9467 7310
24063 3409 190 
24064 7610 1506
24065 7701 6921
24066 9271 3142
24067 3446 5642
24068 5870 6935
24069 8342 2050
24070 4716 544 
24071 1418 6559
24072 1604 4298
24073 6696 4547
24074 1047 177 
24075 5601 7279
24076 1124 4567
24077 156  5594
24078 6882 5038
24079 9099 4896
24080 5378 611 
24081 5096 5362
24082 4204 7883
24083 9734 1073
24084 4525 1462
24085 4190 9193
24086 677  2567
24087 9801 3805
24088 2202 2277
24089 1356 7652
24090 1813 2898
24091 3648 5274
24092 7287 9963
24093 4687 3228
24094 1629 2146
24095 2686 1679
24096 4135 8207
24097 3911 2669
24098 6330 3750
24099 2478 990 
24100 2100 1848
24101 9486 1049
24102 6986 5388
24103 1698 3466
24104 4945 1157
24105 7682 4754
24106 5343 6874
24107 2402 4330
24108 1661 1562
24109 8501 5300
24110 7685 7167
24111 8456 9667
24112 9775 1300
24113 8866 9263
24114 7542 2929
24115 7257 2292
24116 3317 4539
24117 7177 8168
24118 3199 4460
24119 884  69  
24120 4135 2536
24121 8922 3122
24122 8076 1160
24123 4458 4081
24124 7465 8488
24125 8203 7938
24126 3774 9846
24127 527  7502
24128 8719 4271
24129 3561 972 
24130 5157 872 
24131 5167 2715
24132 8078 1852
24133 842  5483
24134 3053 2116
24135 2601 6723
24136 7063 7317
24137 6753 7238
24138 1728 9148
24139 5776 6641
24140 2267 2965
24141 8517 3078
24142 944  2046
24143 1748 8380
24144 3866 3692
24145 341  9620
24146 8743 9466
24147 648  2556
24148 8640 6210
24149 5129 96  
24150 5414 5319
24151 488  9420
24152 7220 5003
24153 2314 5914
24154 4822 1322
24155 6840 3230
24156 2541 2275
24157 1572 2607
24158 4464 1337
24159 3507 5771
24160 4643 9174
24161 1317 5233
24162 1406 6407
24163 4943 5360
24164 2063 2584
24165 5294 9456
24166 6405 1550
24167 52   3722
24168 2322 2461
24169 4150 2791
24170 9885 8709
24171 9882 5817
24172 8748 8613
24173 6309 8954
24174 1380 6326
24175 9766 4026
24176 9503 3360
24177 1657 951 
24178 5721 6410
24179 9618 4854
24180 8874 3646
24181 8508 1540
24182 3959 9527
24183 1810 2368
24184 7836 247 
24185 2709 3624
24186 4221 7851
24187 8173 3686
24188 6970 4139
24189 649  4913
24190 8519 3586
24191 7555 5014
24192 9638 9158
24193 3519 1648
24194 8286 3446
24195 1757 8107
24196 3266 4796
24197 659  3654
24198 8906 1222
24199 368  9788
24200 9287 4339
24201 7267 3410
24202 4516 7993
24203 1305 2420
24204 2690 100 
24205 657  1317
24206 7934 5210
24207 5267 8078
24208 7560 4424
24209 3840 3401
24210 3294 8185
24211 6646 2787
24212 4647 1556
24213 2654 623 
24214 6826 4593
24215 2727 7117
24216 4003 788 
24217 6750 1260
24218 4759 412 
24219 2029 2361
24220 3552 9976
24221 1424 7638
24222 6562 7621
24223 7791 7692
24224 6362 8948
24225 6307 5727
24226 1235 3926
24227 1807 7315
24228 3845 5253
24229 4064 5114
24230 6921 496 
24231 9730 3545
24232 9445 3100
24233 664  9573
24234 1305 1958
24235 777  9226
24236 6292 6021
24237 7584 8739
24238 1479 6786
24239 4422 6249
24240 8441 9247
24241 8938 2604
24242 9288 3935
24243 4123 9546
24244 3525 8854
24245 5917 730 
24246 2811 5050
24247 4183 2698
24248 7799 988 
24249 337  8382
24250 851  8516
24251 485  2733
24252 5068 56  
24253 9436 2537
24254 5280 9675
24255 1644 1495
24256 3125 8306
24257 993  6271
24258 64   1142
24259 6890 849 
24260 5914 5891
24261 8582 7427
24262 8336 4289
24263 9614 3541
24264 8870 6829
24265 9713 7214
24266 9897 616 
24267 2438 6122
24268 6016 8332
24269 2117 7028
24270 7560 1085
24271 3806 8912
24272 4712 3943
24273 3951 7689
24274 2092 5437
24275 5011 6771
24276 7026 7397
24277 140  1791
24278 8066 8931
24279 4560 9487
24280 5582 6249
24281 6410 8971
24282 2008 2129
24283 9559 7586
24284 3572 9353
24285 1274 2342
24286 7179 209 
24287 3699 3559
24288 6643 4133
24289 1803 3511
24290 7530 5755
24291 4535 8571
24292 9456 9107
24293 3258 5714
24294 8750 592 
24295 3224 101 
24296 8722 1937
24297 1064 9577
24298 9009 4726
24299 1169 7468
24300 4874 4790
24301 1401 3684
24302 7813 3697
24303 5585 8405
24304 8512 6824
24305 2194 249 
24306 1154 4609
24307 1673 2615
24308 1664 1418
24309 1051 1212
24310 6370 4849
24311 4088 6900
24312 6106 3118
24313 8069 4907
24314 7500 3588
24315 3952 8367
24316 1346 4410
24317 1493 6464
24318 301  6478
24319 2572 1415
24320 9754 2825
24321 2297 6106
24322 1208 9102
24323 2318 5903
24324 3411 1408
24325 9896 366 
24326 6904 9529
24327 8227 3058
24328 223  3712
24329 2777 5833
24330 3535 2329
24331 9894 5791
24332 9170 6600
24333 479  5472
24334 7730 1571
24335 980  8564
24336 9951 9755
24337 4431 6   
24338 7649 3465
24339 8292 6102
24340 9560 6284
24341 2281 902 
24342 3441 6302
24343 2220 9734
24344 1755 2321
24345 1242 7852
24346 3269 3346
24347 8840 6792
24348 9894 877 
24349 3738 2195
24350 5326 6666
24351 6602 8907
24352 1590 1115
24353 6284 6284
24354 3575 6359
24355 6705 1441
24356 1354 4795
24357 824  5538
24358 9525 6891
24359 175  6084
24360 4254 7271
24361 713  8110
24362 8230 3974
24363 7101 384 
24364 3700 1579
24365 2992 1522
24366 3333 8490
24367 4879 2302
24368 6738 8317
24369 8476 8897
24370 7287 3192
24371 2411 7143
24372 323  5625
24373 8891 5285
24374 8735 8766
24375 2258 4500
24376 8855 3326
24377 4066 4925
24378 5832 3083
24379 4877 6236
24380 4149 4068
24381 955  3307
24382 6447 2675
24383 6182 7759
24384 1367 1906
24385 7370 7045
24386 532  419 
24387 3210 1031
24388 6158 2925
24389 1893 7311
24390 5967 4489
24391 3468 502 
24392 3830 2626
24393 7820 6849
24394 7657 2769
24395 7809 2300
24396 4035 6407
24397 5436 3334
24398 6160 9740
24399 1856 1846
24400 9727 4584
24401 7151 503 
24402 4261 1291
24403 8758 4166
24404 9663 1849
24405 2014 9345
24406 8753 2787
24407 1195 7400
24408 9674 5304
24409 4918 68  
24410 4795 2527
24411 937  7013
24412 8338 7605
24413 4233 9043
24414 9463 2759
24415 5932 8622
24416 3559 5735
24417 8861 6359
24418 3151 4232
24419 4543 2370
24420 4561 4919
24421 4204 7933
24422 8703 423 
24423 6609 7575
24424 4540 7902
24425 6983 7327
24426 8367 9481
24427 7827 4469
24428 8693 6419
24429 3678 9132
24430 4548 7719
24431 4737 9861
24432 635  8485
24433 7422 2227
24434 9378 2565
24435 8339 7083
24436 5664 7445
24437 1294 324 
24438 1448 7368
24439 7219 5916
24440 5853 3177
24441 7336 5567
24442 9449 3295
24443 7063 6375
24444 2151 547 
24445 509  6365
24446 7092 1844
24447 9369 9305
24448 2241 1615
24449 6371 4936
24450 280  9134
24451 8561 8012
24452 8643 8816
24453 6011 767 
24454 4564 5284
24455 4125 9317
24456 8676 4256
24457 1563 230 
24458 2476 3256
24459 3144 3774
24460 6107 9802
24461 4312 4543
24462 6420 6467
24463 5431 8721
24464 3335 5063
24465 6292 9711
24466 3578 3302
24467 8991 491 
24468 2918 9571
24469 9343 9974
24470 4006 1943
24471 6517 912 
24472 5407 6745
24473 9008 3257
24474 7671 5869
24475 751  1562
24476 4667 6877
24477 2637 3063
24478 3655 729 
24479 1182 799 
24480 537  7606
24481 4053 2618
24482 5128 1162
24483 1211 8615
24484 720  207 
24485 2727 9635
24486 3239 4157
24487 9412 1825
24488 5306 6350
24489 9223 4687
24490 6754 3499
24491 755  8366
24492 5238 7470
24493 3789 6619
24494 5462 3666
24495 1094 9015
24496 5288 4004
24497 2521 5003
24498 3334 2332
24499 1097 3063
24500 9498 9855
24501 2705 4213
24502 8343 2933
24503 8981 554 
24504 5006 5361
24505 9377 8849
24506 3967 5272
24507 4894 1758
24508 4435 9056
24509 4616 4571
24510 2281 7257
24511 2225 8591
24512 6938 1458
24513 4084 9581
24514 822  621 
24515 9733 9227
24516 2003 4963
24517 3183 2642
24518 3635 1515
24519 7754 6674
24520 5538 9482
24521 9674 5045
24522 8201 9202
24523 1438 1273
24524 230  1601
24525 8277 1303
24526 6017 6376
24527 5160 7034
24528 4148 7278
24529 7271 3139
24530 336  3999
24531 1886 6165
24532 6720 8940
24533 8848 2369
24534 5900 9579
24535 5854 1145
24536 7195 2972
24537 7095 9683
24538 1420 8303
24539 8834 5491
24540 1118 3189
24541 694  9430
24542 9342 2734
24543 8095 5477
24544 1367 7925
24545 2620 2957
24546 5129 9170
24547 1720 4521
24548 9146 8853
24549 2651 1433
24550 9859 4540
24551 9769 4414
24552 1801 9374
24553 2161 4301
24554 4819 767 
24555 4173 9260
24556 4149 3983
24557 7608 7400
24558 3047 408 
24559 7930 259 
24560 4921 5071
24561 3801 5086
24562 2755 1298
24563 7237 8512
24564 3324 9151
24565 1866 9284
24566 3167 8467
24567 7202 341 
24568 4085 9634
24569 7545 3846
24570 3141 2299
24571 643  57  
24572 5739 5951
24573 4289 5774
24574 3027 4549
24575 4644 5136
24576 3160 7438
24577 4211 9273
24578 3295 700 
24579 7253 2996
24580 8678 553 
24581 1541 362 
24582 7098 5659
24583 7131 3628
24584 7338 9241
24585 3648 6727
24586 2641 9777
24587 8698 3809
24588 6008 2641
24589 8293 3559
24590 8066 993 
24591 244  294 
24592 9043 8566
24593 9024 8004
24594 1907 2317
24595 9856 947 
24596 5014 3162
24597 9092 7729
24598 9606 4543
24599 2962 7708
24600 2556 4187
24601 1125 5506
24602 1050 7598
24603 8703 9586
24604 8185 2130
24605 8148 6655
24606 883  2299
24607 2693 5134
24608 9212 8404
24609 963  5735
24610 1716 3826
24611 5289 9063
24612 7521 7459
24613 1527 4444
24614 9134 4434
24615 8551 7960
24616 6573 4657
24617 4281 1838
24618 7118 8640
24619 4401 2833
24620 627  5885
24621 4475 4921
24622 983  9410
24623 8650 885 
24624 3890 5662
24625 3060 5713
24626 3410 2132
24627 4042 3493
24628 9787 4827
24629 3557 8084
24630 4341 69  
24631 1990 6545
24632 7799 4453
24633 3000 1255
24634 566  3832
24635 1275 6670
24636 2983 472 
24637 5241 2319
24638 6412 4189
24639 1169 77  
24640 6912 8125
24641 4908 7842
24642 2862 1310
24643 9454 5907
24644 9496 4646
24645 5807 9056
24646 895  5086
24647 5641 2914
24648 6184 2134
24649 9517 3993
24650 7473 7009
24651 5327 7370
24652 6773 9951
24653 3652 1753
24654 2480 1509
24655 9484 9829
24656 843  3834
24657 9504 8197
24658 9184 6562
24659 1449 2798
24660 9941 2432
24661 4434 4559
24662 7451 3789
24663 2866 9618
24664 9623 1477
24665 8497 7142
24666 2983 7840
24667 5678 4991
24668 1343 2152
24669 7038 3604
24670 3669 6630
24671 7475 5089
24672 4421 5738
24673 2775 2440
24674 7666 6950
24675 4026 9873
24676 1868 7267
24677 4641 6124
24678 2473 4591
24679 634  3171
24680 476  642 
24681 4042 2741
24682 2487 9742
24683 5048 7351
24684 3292 8589
24685 6491 5148
24686 3417 2845
24687 749  6359
24688 4599 6262
24689 5752 901 
24690 3900 502 
24691 3718 9024
24692 3314 3143
24693 945  4034
24694 9691 9639
24695 823  7893
24696 9661 536 
24697 7413 562 
24698 294  6416
24699 6221 992 
24700 1147 7926
24701 7728 9628
24702 8838 7607
24703 8387 966 
24704 2811 3977
24705 6303 8448
24706 7239 1420
24707 5587 9882
24708 8109 3194
24709 2191 2010
24710 137  6029
24711 8967 1359
24712 5129 8697
24713 714  9640
24714 3202 3997
24715 5803 4554
24716 7303 4686
24717 710  4444
24718 8301 3044
24719 4212 6351
24720 1165 5701
24721 4265 914 
24722 8485 9981
24723 5800 3598
24724 8517 1895
24725 3540 9824
24726 4183 8218
24727 5488 1241
24728 5364 7525
24729 9943 8412
24730 3443 7501
24731 4959 8843
24732 6845 2755
24733 888  4534
24734 1103 8624
24735 6372 7659
24736 8138 4552
24737 3746 2758
24738 3976 5656
24739 968  3618
24740 9627 6491
24741 1492 5717
24742 8695 7572
24743 8138 6255
24744 2211 2800
24745 3734 9537
24746 5651 255 
24747 2052 4143
24748 3328 1453
24749 6345 4988
24750 9028 4195
24751 5985 458 
24752 379  4159
24753 2231 3303
24754 8000 7745
24755 5459 991 
24756 9927 5731
24757 5416 3458
24758 1699 2752
24759 7060 734 
24760 2121 9636
24761 492  1468
24762 2972 8627
24763 6107 4097
24764 7050 1639
24765 1556 2466
24766 6120 4856
24767 6109 9629
24768 6077 606 
24769 686  2034
24770 6869 29  
24771 7364 5965
24772 5998 9103
24773 1942 6141
24774 860  4908
24775 4871 1634
24776 9792 9975
24777 1272 1896
24778 8913 9034
24779 1147 1464
24780 7122 538 
24781 5643 7218
24782 595  958 
24783 8591 2879
24784 7777 3215
24785 5490 3499
24786 133  8772
24787 1095 6158
24788 3909 7975
24789 9300 8444
24790 7183 4104
24791 8420 7734
24792 4676 3926
24793 8620 279 
24794 9936 1105
24795 8204 6402
24796 9686 5698
24797 7367 6929
24798 2905 6402
24799 9020 1223
24800 9370 2278
24801 3718 6229
24802 3842 8458
24803 5033 1578
24804 8269 8039
24805 7205 8353
24806 9757 9369
24807 8813 7349
24808 985  4700
24809 8270 3399
24810 6898 2336
24811 7099 4231
24812 1713 9432
24813 4274 9448
24814 63   3846
24815 3021 162 
24816 5352 7596
24817 7819 2632
24818 7471 7008
24819 1379 5589
24820 6733 5224
24821 678  7418
24822 3533 6165
24823 1889 5241
24824 660  4760
24825 1208 3409
24826 8338 6981
24827 8767 6000
24828 564  3073
24829 5117 6617
24830 7851 6791
24831 3417 18  
24832 2681 3570
24833 9967 4740
24834 6768 3021
24835 6729 130 
24836 9531 3789
24837 9138 9840
24838 4943 999 
24839 2405 5653
24840 6679 5345
24841 7923 9066
24842 6165 9472
24843 8813 7654
24844 29   6728
24845 4074 6159
24846 957  25  
24847 9417 9811
24848 1704 1306
24849 5198 2588
24850 4964 1130
24851 1305 9892
24852 5572 1029
24853 7935 6127
24854 5396 6346
24855 2709 7985
24856 6112 4564
24857 3625 3222
24858 7944 6429
24859 3903 579 
24860 7257 9000
24861 4144 6552
24862 9648 3990
24863 1657 9339
24864 3528 6789
24865 9903 6235
24866 7914 6762
24867 5187 2539
24868 5262 1795
24869 3292 9298
24870 2335 8408
24871 4318 1220
24872 250  4527
24873 4166 1380
24874 686  2308
24875 8562 6126
24876 1178 6908
24877 7665 1876
24878 5590 2793
24879 5804 6954
24880 7791 9584
24881 9171 2228
24882 1583 1164
24883 106  4145
24884 2377 74  
24885 8352 1419
24886 1329 9453
24887 3676 6310
24888 872  79  
24889 1045 3075
24890 8501 9767
24891 7268 1867
24892 1837 7588
24893 3132 7055
24894 6702 3764
24895 3477 305 
24896 1242 7470
24897 4264 2465
24898 2841 5976
24899 8566 3824
24900 9430 5584
24901 3601 6658
24902 9800 2781
24903 696  6157
24904 2958 6158
24905 126  5374
24906 9499 6825
24907 7828 9980
24908 4098 8509
24909 6310 1682
24910 4035 311 
24911 9854 4073
24912 8907 3767
24913 4046 85  
24914 7119 3145
24915 7386 7820
24916 7995 8291
24917 2076 7358
24918 4139 2056
24919 4373 6366
24920 4696 9843
24921 4873 7515
24922 6507 203 
24923 2287 5986
24924 5524 2550
24925 2418 4846
24926 4868 3290
24927 1272 1869
24928 9883 1736
24929 2117 7991
24930 1109 6227
24931 1027 2767
24932 7980 5422
24933 6411 9663
24934 662  3674
24935 8570 4163
24936 8654 59  
24937 9880 1249
24938 2336 5992
24939 3514 8121
24940 5561 9834
24941 2488 4115
24942 2615 3563
24943 5525 4450
24944 3058 7428
24945 1688 5293
24946 927  5815
24947 8030 3839
24948 1690 3082
24949 6092 7933
24950 9427 9171
24951 3725 3171
24952 2623 8951
24953 7896 949 
24954 6005 4565
24955 4228 6291
24956 859  5004
24957 8418 8001
24958 5522 2536
24959 5554 7129
24960 6728 8704
24961 5611 316 
24962 6051 1963
24963 5615 7869
24964 3551 3513
24965 1394 9141
24966 7268 4276
24967 2330 6394
24968 6019 5675
24969 2695 9401
24970 7828 6022
24971 751  2674
24972 7977 5593
24973 3902 8710
24974 272  75  
24975 4489 1486
24976 73   9537
24977 5605 3885
24978 9226 4921
24979 9678 6040
24980 3495 8028
24981 80   1299
24982 82   193 
24983 1316 2272
24984 9334 5525
24985 2963 252 
24986 1021 5430
24987 9307 1415
24988 3100 1286
24989 3348 7949
24990 39   1390
24991 2120 3894
24992 7102 2071
24993 8393 8745
24994 369  8280
24995 1314 8312
24996 2101 562 
24997 6335 4297
24998 7679 4581
24999 504  8602
25000 2966 6533
25001 7557 6440
DEMAND_SECTION
1    0   
2    6   
3    10  
4    1   
5    4   
6    6   
7    4   
8    5   
9    57  
10   4   
11   2   
12   3   
13   10  
14   10  
15   73  
16   3   
17   7   
18   10  
19   1   
20   4   
21   5   
22   4   
23   4   
24   10  
25   50  
26   80  
27   1   
28   8   
29   5   
30   9   
31   7   
32   5   
33   2   
34   6   
35   3   
36   2   
37   1   
38   58  
39   6   
40   74  
41   82  
42   2   
43   76  
44   9   
45   84  
46   9   
47   7   
48   97  
49   3   
50   9   
51   10  
52   8   
53   4   
54   10  
55   71  
56   97  
57   63  
58   2   
59   9   
60   8   
61   71  
62   6   
63   5   
64   1   
65   6   
66   1   
67   2   
68   1   
69   4   
70   91  
71   2   
72   1   
73   9   
74   2   
75   4   
76   10  
77   3   
78   3   
79   3   
80   4   
81   10  
82   10  
83   4   
84   2   
85   9   
86   9   
87   54  
88   6   
89   1   
90   5   
91   6   
92   7   
93   8   
94   2   
95   95  
96   93  
97   4   
98   10  
99   66  
100  1   
101  6   
102  59  
103  4   
104  6   
105  68  
106  63  
107  3   
108  4   
109  7   
110  4   
111  91  
112  86  
113  55  
114  86  
115  72  
116  8   
117  9   
118  1   
119  3   
120  6   
121  7   
122  2   
123  96  
124  3   
125  9   
126  3   
127  6   
128  1   
129  2   
130  92  
131  5   
132  7   
133  4   
134  59  
135  5   
136  6   
137  5   
138  6   
139  4   
140  3   
141  6   
142  7   
143  8   
144  10  
145  70  
146  10  
147  73  
148  4   
149  7   
150  2   
151  7   
152  10  
153  7   
154  2   
155  10  
156  5   
157  2   
158  1   
159  6   
160  3   
161  5   
162  1   
163  4   
164  5   
165  8   
166  50  
167  4   
168  5   
169  2   
170  1   
171  3   
172  7   
173  8   
174  5   
175  5   
176  7   
177  8   
178  66  
179  82  
180  3   
181  3   
182  7   
183  9   
184  2   
185  7   
186  8   
187  6   
188  9   
189  6   
190  6   
191  94  
192  1   
193  61  
194  2   
195  4   
196  8   
197  5   
198  80  
199  6   
200  99  
201  5   
202  99  
203  3   
204  1   
205  1   
206  8   
207  8   
208  5   
209  6   
210  8   
211  4   
212  10  
213  2   
214  1   
215  6   
216  3   
217  3   
218  8   
219  55  
220  4   
221  10  
222  7   
223  3   
224  4   
225  4   
226  10  
227  3   
228  7   
229  2   
230  10  
231  8   
232  2   
233  2   
234  8   
235  1   
236  9   
237  59  
238  10  
239  9   
240  9   
241  7   
242  6   
243  1   
244  7   
245  6   
246  2   
247  9   
248  5   
249  9   
250  8   
251  10  
252  1   
253  8   
254  66  
255  5   
256  5   
257  6   
258  2   
259  10  
260  10  
261  3   
262  4   
263  6   
264  1   
265  1   
266  52  
267  10  
268  4   
269  5   
270  68  
271  4   
272  6   
273  4   
274  4   
275  50  
276  1   
277  4   
278  9   
279  4   
280  2   
281  6   
282  68  
283  100 
284  1   
285  71  
286  52  
287  78  
288  2   
289  1   
290  1   
291  54  
292  7   
293  5   
294  1   
295  1   
296  8   
297  10  
298  1   
299  81  
300  4   
301  61  
302  59  
303  5   
304  2   
305  6   
306  92  
307  76  
308  1   
309  50  
310  6   
311  9   
312  1   
313  3   
314  8   
315  6   
316  6   
317  4   
318  10  
319  2   
320  3   
321  8   
322  1   
323  6   
324  84  
325  8   
326  7   
327  10  
328  9   
329  5   
330  2   
331  3   
332  4   
333  5   
334  5   
335  86  
336  57  
337  7   
338  10  
339  5   
340  85  
341  6   
342  8   
343  1   
344  6   
345  9   
346  52  
347  2   
348  6   
349  10  
350  1   
351  10  
352  55  
353  90  
354  1   
355  7   
356  10  
357  1   
358  61  
359  7   
360  8   
361  1   
362  5   
363  8   
364  1   
365  9   
366  5   
367  3   
368  5   
369  10  
370  94  
371  10  
372  57  
373  1   
374  8   
375  5   
376  10  
377  82  
378  5   
379  4   
380  3   
381  9   
382  9   
383  1   
384  7   
385  70  
386  50  
387  50  
388  8   
389  9   
390  8   
391  6   
392  76  
393  10  
394  5   
395  6   
396  1   
397  1   
398  10  
399  7   
400  3   
401  6   
402  3   
403  84  
404  98  
405  95  
406  4   
407  9   
408  99  
409  9   
410  10  
411  10  
412  1   
413  9   
414  1   
415  4   
416  10  
417  5   
418  3   
419  4   
420  4   
421  9   
422  73  
423  1   
424  7   
425  8   
426  4   
427  10  
428  1   
429  2   
430  2   
431  8   
432  3   
433  1   
434  1   
435  1   
436  8   
437  1   
438  10  
439  4   
440  87  
441  9   
442  65  
443  9   
444  54  
445  2   
446  6   
447  9   
448  4   
449  2   
450  7   
451  1   
452  98  
453  8   
454  2   
455  7   
456  3   
457  2   
458  9   
459  77  
460  1   
461  3   
462  10  
463  6   
464  85  
465  77  
466  6   
467  75  
468  8   
469  67  
470  8   
471  52  
472  3   
473  99  
474  10  
475  10  
476  4   
477  3   
478  2   
479  1   
480  8   
481  79  
482  5   
483  4   
484  3   
485  2   
486  5   
487  5   
488  7   
489  6   
490  78  
491  62  
492  10  
493  10  
494  97  
495  7   
496  5   
497  2   
498  10  
499  97  
500  5   
501  71  
502  1   
503  3   
504  7   
505  8   
506  1   
507  3   
508  10  
509  9   
510  6   
511  7   
512  65  
513  4   
514  10  
515  70  
516  74  
517  9   
518  4   
519  10  
520  60  
521  9   
522  78  
523  10  
524  2   
525  10  
526  3   
527  86  
528  10  
529  10  
530  73  
531  7   
532  6   
533  74  
534  78  
535  6   
536  9   
537  1   
538  3   
539  89  
540  80  
541  1   
542  5   
543  8   
544  1   
545  4   
546  3   
547  9   
548  6   
549  83  
550  6   
551  71  
552  6   
553  4   
554  8   
555  4   
556  7   
557  9   
558  8   
559  2   
560  9   
561  4   
562  56  
563  64  
564  9   
565  51  
566  6   
567  3   
568  5   
569  97  
570  5   
571  10  
572  5   
573  9   
574  56  
575  3   
576  4   
577  62  
578  1   
579  3   
580  2   
581  94  
582  9   
583  1   
584  4   
585  63  
586  3   
587  8   
588  2   
589  3   
590  9   
591  8   
592  6   
593  8   
594  1   
595  4   
596  3   
597  7   
598  7   
599  1   
600  2   
601  5   
602  9   
603  2   
604  1   
605  83  
606  8   
607  64  
608  1   
609  8   
610  1   
611  2   
612  9   
613  10  
614  10  
615  5   
616  9   
617  10  
618  8   
619  71  
620  8   
621  10  
622  7   
623  10  
624  7   
625  6   
626  9   
627  4   
628  8   
629  2   
630  5   
631  5   
632  81  
633  7   
634  100 
635  5   
636  5   
637  74  
638  8   
639  7   
640  2   
641  5   
642  6   
643  8   
644  5   
645  96  
646  5   
647  7   
648  8   
649  8   
650  56  
651  10  
652  2   
653  6   
654  2   
655  2   
656  6   
657  1   
658  68  
659  4   
660  8   
661  4   
662  4   
663  87  
664  6   
665  89  
666  5   
667  9   
668  93  
669  55  
670  2   
671  5   
672  8   
673  7   
674  7   
675  8   
676  64  
677  4   
678  8   
679  9   
680  61  
681  84  
682  6   
683  51  
684  5   
685  7   
686  7   
687  2   
688  4   
689  9   
690  5   
691  9   
692  2   
693  2   
694  5   
695  7   
696  2   
697  8   
698  5   
699  7   
700  7   
701  78  
702  3   
703  1   
704  9   
705  2   
706  1   
707  3   
708  57  
709  8   
710  10  
711  9   
712  3   
713  1   
714  8   
715  10  
716  8   
717  9   
718  3   
719  7   
720  1   
721  2   
722  4   
723  2   
724  10  
725  9   
726  6   
727  72  
728  1   
729  3   
730  1   
731  3   
732  3   
733  9   
734  61  
735  7   
736  5   
737  80  
738  8   
739  6   
740  8   
741  65  
742  94  
743  7   
744  84  
745  7   
746  5   
747  4   
748  4   
749  9   
750  10  
751  8   
752  2   
753  3   
754  83  
755  2   
756  9   
757  9   
758  87  
759  7   
760  3   
761  2   
762  9   
763  10  
764  10  
765  64  
766  5   
767  80  
768  73  
769  9   
770  5   
771  10  
772  6   
773  5   
774  1   
775  66  
776  91  
777  4   
778  9   
779  3   
780  9   
781  55  
782  2   
783  4   
784  7   
785  5   
786  5   
787  10  
788  2   
789  8   
790  85  
791  4   
792  1   
793  1   
794  5   
795  10  
796  7   
797  63  
798  3   
799  10  
800  97  
801  4   
802  78  
803  6   
804  9   
805  3   
806  9   
807  9   
808  5   
809  76  
810  4   
811  4   
812  3   
813  8   
814  9   
815  9   
816  2   
817  2   
818  2   
819  4   
820  3   
821  5   
822  10  
823  4   
824  7   
825  9   
826  4   
827  2   
828  5   
829  3   
830  1   
831  7   
832  3   
833  8   
834  99  
835  3   
836  6   
837  6   
838  72  
839  5   
840  6   
841  2   
842  2   
843  65  
844  1   
845  99  
846  8   
847  8   
848  10  
849  9   
850  7   
851  5   
852  62  
853  7   
854  5   
855  66  
856  5   
857  5   
858  5   
859  5   
860  2   
861  1   
862  3   
863  4   
864  9   
865  9   
866  54  
867  50  
868  79  
869  7   
870  10  
871  7   
872  1   
873  6   
874  7   
875  4   
876  9   
877  1   
878  1   
879  2   
880  6   
881  8   
882  5   
883  10  
884  6   
885  3   
886  1   
887  10  
888  7   
889  1   
890  2   
891  4   
892  10  
893  1   
894  10  
895  8   
896  95  
897  66  
898  3   
899  3   
900  7   
901  10  
902  9   
903  10  
904  10  
905  2   
906  2   
907  4   
908  6   
909  4   
910  1   
911  7   
912  80  
913  4   
914  8   
915  1   
916  1   
917  87  
918  8   
919  10  
920  2   
921  6   
922  9   
923  51  
924  9   
925  66  
926  2   
927  3   
928  4   
929  92  
930  9   
931  4   
932  7   
933  87  
934  7   
935  2   
936  79  
937  7   
938  5   
939  4   
940  10  
941  4   
942  10  
943  53  
944  10  
945  9   
946  7   
947  10  
948  3   
949  5   
950  2   
951  7   
952  4   
953  1   
954  53  
955  5   
956  59  
957  4   
958  10  
959  10  
960  63  
961  61  
962  65  
963  1   
964  3   
965  3   
966  8   
967  2   
968  5   
969  9   
970  6   
971  1   
972  7   
973  4   
974  89  
975  79  
976  10  
977  6   
978  2   
979  7   
980  7   
981  76  
982  89  
983  2   
984  71  
985  5   
986  4   
987  2   
988  2   
989  64  
990  100 
991  9   
992  3   
993  4   
994  6   
995  5   
996  7   
997  6   
998  4   
999  95  
1000 6   
1001 2   
1002 5   
1003 3   
1004 64  
1005 4   
1006 7   
1007 5   
1008 66  
1009 9   
1010 7   
1011 3   
1012 10  
1013 80  
1014 6   
1015 7   
1016 6   
1017 4   
1018 3   
1019 7   
1020 6   
1021 5   
1022 2   
1023 61  
1024 87  
1025 1   
1026 5   
1027 9   
1028 3   
1029 94  
1030 7   
1031 91  
1032 5   
1033 9   
1034 6   
1035 10  
1036 3   
1037 2   
1038 88  
1039 85  
1040 10  
1041 62  
1042 7   
1043 10  
1044 2   
1045 6   
1046 8   
1047 3   
1048 3   
1049 5   
1050 10  
1051 8   
1052 9   
1053 8   
1054 6   
1055 2   
1056 1   
1057 1   
1058 3   
1059 81  
1060 94  
1061 9   
1062 3   
1063 3   
1064 8   
1065 8   
1066 8   
1067 2   
1068 50  
1069 3   
1070 4   
1071 8   
1072 7   
1073 10  
1074 76  
1075 4   
1076 8   
1077 7   
1078 64  
1079 4   
1080 5   
1081 59  
1082 8   
1083 10  
1084 2   
1085 4   
1086 4   
1087 52  
1088 1   
1089 9   
1090 7   
1091 6   
1092 2   
1093 3   
1094 2   
1095 1   
1096 7   
1097 9   
1098 6   
1099 10  
1100 10  
1101 94  
1102 3   
1103 6   
1104 6   
1105 1   
1106 10  
1107 5   
1108 3   
1109 2   
1110 4   
1111 8   
1112 81  
1113 6   
1114 5   
1115 4   
1116 8   
1117 10  
1118 8   
1119 4   
1120 5   
1121 94  
1122 8   
1123 7   
1124 4   
1125 4   
1126 5   
1127 2   
1128 2   
1129 7   
1130 72  
1131 6   
1132 4   
1133 9   
1134 7   
1135 7   
1136 6   
1137 9   
1138 8   
1139 2   
1140 50  
1141 9   
1142 6   
1143 89  
1144 3   
1145 10  
1146 1   
1147 1   
1148 6   
1149 2   
1150 2   
1151 8   
1152 3   
1153 7   
1154 5   
1155 8   
1156 8   
1157 1   
1158 9   
1159 76  
1160 100 
1161 8   
1162 6   
1163 9   
1164 57  
1165 98  
1166 5   
1167 2   
1168 1   
1169 5   
1170 7   
1171 4   
1172 4   
1173 4   
1174 5   
1175 7   
1176 2   
1177 9   
1178 1   
1179 53  
1180 7   
1181 7   
1182 9   
1183 7   
1184 5   
1185 2   
1186 10  
1187 63  
1188 3   
1189 8   
1190 10  
1191 4   
1192 1   
1193 2   
1194 6   
1195 9   
1196 9   
1197 2   
1198 5   
1199 82  
1200 4   
1201 84  
1202 4   
1203 10  
1204 8   
1205 1   
1206 4   
1207 5   
1208 1   
1209 1   
1210 55  
1211 3   
1212 5   
1213 8   
1214 2   
1215 9   
1216 3   
1217 6   
1218 2   
1219 70  
1220 83  
1221 7   
1222 4   
1223 4   
1224 9   
1225 51  
1226 68  
1227 3   
1228 3   
1229 3   
1230 5   
1231 2   
1232 2   
1233 66  
1234 9   
1235 4   
1236 72  
1237 8   
1238 3   
1239 6   
1240 9   
1241 6   
1242 7   
1243 94  
1244 66  
1245 2   
1246 1   
1247 5   
1248 65  
1249 91  
1250 9   
1251 3   
1252 4   
1253 6   
1254 1   
1255 9   
1256 75  
1257 9   
1258 3   
1259 9   
1260 9   
1261 10  
1262 10  
1263 8   
1264 91  
1265 59  
1266 1   
1267 1   
1268 58  
1269 7   
1270 4   
1271 8   
1272 72  
1273 9   
1274 1   
1275 9   
1276 3   
1277 72  
1278 7   
1279 2   
1280 58  
1281 4   
1282 67  
1283 10  
1284 3   
1285 90  
1286 1   
1287 53  
1288 5   
1289 76  
1290 7   
1291 4   
1292 2   
1293 2   
1294 3   
1295 9   
1296 6   
1297 1   
1298 53  
1299 10  
1300 64  
1301 5   
1302 6   
1303 6   
1304 8   
1305 84  
1306 6   
1307 1   
1308 7   
1309 86  
1310 2   
1311 2   
1312 9   
1313 10  
1314 5   
1315 9   
1316 9   
1317 56  
1318 1   
1319 1   
1320 87  
1321 4   
1322 10  
1323 87  
1324 7   
1325 3   
1326 3   
1327 4   
1328 95  
1329 3   
1330 67  
1331 6   
1332 8   
1333 8   
1334 6   
1335 6   
1336 1   
1337 10  
1338 1   
1339 60  
1340 7   
1341 10  
1342 4   
1343 9   
1344 60  
1345 8   
1346 9   
1347 2   
1348 2   
1349 1   
1350 3   
1351 1   
1352 1   
1353 2   
1354 79  
1355 5   
1356 1   
1357 1   
1358 9   
1359 8   
1360 6   
1361 2   
1362 57  
1363 9   
1364 8   
1365 71  
1366 8   
1367 10  
1368 2   
1369 1   
1370 10  
1371 2   
1372 3   
1373 8   
1374 4   
1375 8   
1376 1   
1377 6   
1378 85  
1379 3   
1380 7   
1381 9   
1382 89  
1383 2   
1384 3   
1385 6   
1386 10  
1387 2   
1388 1   
1389 4   
1390 9   
1391 99  
1392 2   
1393 8   
1394 6   
1395 58  
1396 3   
1397 10  
1398 4   
1399 5   
1400 10  
1401 6   
1402 2   
1403 6   
1404 6   
1405 1   
1406 83  
1407 5   
1408 9   
1409 51  
1410 5   
1411 1   
1412 8   
1413 6   
1414 59  
1415 2   
1416 9   
1417 9   
1418 9   
1419 9   
1420 5   
1421 5   
1422 96  
1423 51  
1424 7   
1425 10  
1426 8   
1427 5   
1428 2   
1429 10  
1430 6   
1431 10  
1432 6   
1433 9   
1434 6   
1435 62  
1436 8   
1437 79  
1438 5   
1439 7   
1440 70  
1441 75  
1442 6   
1443 9   
1444 55  
1445 6   
1446 75  
1447 5   
1448 4   
1449 6   
1450 62  
1451 69  
1452 10  
1453 61  
1454 6   
1455 4   
1456 9   
1457 93  
1458 7   
1459 4   
1460 88  
1461 8   
1462 54  
1463 7   
1464 85  
1465 8   
1466 6   
1467 4   
1468 7   
1469 3   
1470 77  
1471 7   
1472 10  
1473 2   
1474 1   
1475 6   
1476 8   
1477 8   
1478 7   
1479 4   
1480 8   
1481 5   
1482 2   
1483 4   
1484 2   
1485 5   
1486 1   
1487 7   
1488 8   
1489 90  
1490 8   
1491 5   
1492 9   
1493 6   
1494 10  
1495 7   
1496 1   
1497 1   
1498 4   
1499 7   
1500 10  
1501 3   
1502 7   
1503 6   
1504 7   
1505 2   
1506 3   
1507 10  
1508 7   
1509 2   
1510 1   
1511 5   
1512 9   
1513 4   
1514 6   
1515 4   
1516 2   
1517 10  
1518 85  
1519 10  
1520 9   
1521 8   
1522 9   
1523 9   
1524 6   
1525 5   
1526 9   
1527 92  
1528 1   
1529 8   
1530 6   
1531 4   
1532 2   
1533 1   
1534 1   
1535 6   
1536 3   
1537 74  
1538 4   
1539 8   
1540 8   
1541 8   
1542 92  
1543 100 
1544 4   
1545 5   
1546 2   
1547 93  
1548 3   
1549 4   
1550 2   
1551 4   
1552 9   
1553 2   
1554 2   
1555 5   
1556 3   
1557 5   
1558 5   
1559 2   
1560 3   
1561 6   
1562 54  
1563 5   
1564 57  
1565 66  
1566 9   
1567 5   
1568 9   
1569 50  
1570 8   
1571 10  
1572 54  
1573 7   
1574 5   
1575 9   
1576 4   
1577 5   
1578 4   
1579 4   
1580 5   
1581 3   
1582 6   
1583 92  
1584 8   
1585 3   
1586 5   
1587 58  
1588 7   
1589 3   
1590 95  
1591 1   
1592 4   
1593 8   
1594 9   
1595 2   
1596 7   
1597 5   
1598 7   
1599 9   
1600 1   
1601 3   
1602 7   
1603 6   
1604 4   
1605 73  
1606 8   
1607 8   
1608 2   
1609 7   
1610 6   
1611 67  
1612 10  
1613 70  
1614 3   
1615 6   
1616 1   
1617 2   
1618 10  
1619 92  
1620 9   
1621 9   
1622 7   
1623 10  
1624 50  
1625 59  
1626 8   
1627 1   
1628 10  
1629 3   
1630 5   
1631 8   
1632 3   
1633 1   
1634 62  
1635 6   
1636 7   
1637 10  
1638 10  
1639 4   
1640 7   
1641 7   
1642 1   
1643 10  
1644 6   
1645 79  
1646 70  
1647 55  
1648 4   
1649 10  
1650 6   
1651 65  
1652 6   
1653 2   
1654 7   
1655 9   
1656 10  
1657 9   
1658 7   
1659 8   
1660 68  
1661 1   
1662 1   
1663 3   
1664 2   
1665 10  
1666 89  
1667 1   
1668 9   
1669 2   
1670 76  
1671 6   
1672 1   
1673 10  
1674 4   
1675 6   
1676 1   
1677 10  
1678 1   
1679 3   
1680 76  
1681 2   
1682 9   
1683 3   
1684 6   
1685 2   
1686 3   
1687 3   
1688 10  
1689 2   
1690 8   
1691 4   
1692 3   
1693 7   
1694 8   
1695 67  
1696 58  
1697 1   
1698 7   
1699 52  
1700 82  
1701 98  
1702 8   
1703 8   
1704 2   
1705 4   
1706 96  
1707 10  
1708 6   
1709 67  
1710 2   
1711 6   
1712 9   
1713 8   
1714 1   
1715 88  
1716 7   
1717 10  
1718 10  
1719 3   
1720 2   
1721 5   
1722 1   
1723 7   
1724 96  
1725 4   
1726 4   
1727 6   
1728 71  
1729 86  
1730 87  
1731 5   
1732 7   
1733 7   
1734 6   
1735 8   
1736 8   
1737 5   
1738 61  
1739 3   
1740 2   
1741 63  
1742 8   
1743 5   
1744 10  
1745 3   
1746 3   
1747 5   
1748 8   
1749 6   
1750 3   
1751 7   
1752 7   
1753 2   
1754 5   
1755 66  
1756 8   
1757 1   
1758 65  
1759 8   
1760 8   
1761 1   
1762 4   
1763 7   
1764 9   
1765 6   
1766 8   
1767 8   
1768 8   
1769 8   
1770 4   
1771 72  
1772 9   
1773 78  
1774 9   
1775 94  
1776 9   
1777 2   
1778 8   
1779 1   
1780 4   
1781 76  
1782 5   
1783 4   
1784 3   
1785 5   
1786 8   
1787 10  
1788 4   
1789 8   
1790 8   
1791 7   
1792 7   
1793 10  
1794 70  
1795 7   
1796 3   
1797 5   
1798 10  
1799 2   
1800 3   
1801 5   
1802 6   
1803 1   
1804 4   
1805 7   
1806 65  
1807 2   
1808 1   
1809 87  
1810 8   
1811 7   
1812 6   
1813 8   
1814 4   
1815 7   
1816 2   
1817 3   
1818 2   
1819 56  
1820 2   
1821 5   
1822 81  
1823 3   
1824 1   
1825 1   
1826 3   
1827 9   
1828 7   
1829 1   
1830 74  
1831 5   
1832 5   
1833 5   
1834 1   
1835 73  
1836 3   
1837 6   
1838 7   
1839 86  
1840 68  
1841 7   
1842 6   
1843 2   
1844 8   
1845 2   
1846 9   
1847 8   
1848 97  
1849 10  
1850 5   
1851 89  
1852 4   
1853 3   
1854 1   
1855 1   
1856 10  
1857 5   
1858 1   
1859 82  
1860 7   
1861 10  
1862 9   
1863 9   
1864 8   
1865 5   
1866 9   
1867 7   
1868 3   
1869 97  
1870 1   
1871 6   
1872 4   
1873 9   
1874 2   
1875 68  
1876 2   
1877 7   
1878 3   
1879 65  
1880 6   
1881 3   
1882 62  
1883 6   
1884 3   
1885 6   
1886 7   
1887 1   
1888 8   
1889 6   
1890 63  
1891 57  
1892 8   
1893 6   
1894 10  
1895 50  
1896 6   
1897 74  
1898 6   
1899 9   
1900 5   
1901 7   
1902 1   
1903 3   
1904 10  
1905 58  
1906 75  
1907 2   
1908 85  
1909 1   
1910 8   
1911 5   
1912 9   
1913 5   
1914 1   
1915 50  
1916 2   
1917 7   
1918 9   
1919 10  
1920 8   
1921 60  
1922 78  
1923 2   
1924 10  
1925 2   
1926 1   
1927 10  
1928 7   
1929 2   
1930 71  
1931 1   
1932 8   
1933 9   
1934 6   
1935 79  
1936 97  
1937 2   
1938 62  
1939 64  
1940 84  
1941 9   
1942 1   
1943 76  
1944 4   
1945 5   
1946 4   
1947 2   
1948 7   
1949 5   
1950 8   
1951 66  
1952 8   
1953 87  
1954 10  
1955 5   
1956 10  
1957 1   
1958 9   
1959 10  
1960 4   
1961 60  
1962 4   
1963 1   
1964 4   
1965 94  
1966 6   
1967 2   
1968 10  
1969 9   
1970 67  
1971 7   
1972 10  
1973 7   
1974 6   
1975 85  
1976 81  
1977 7   
1978 5   
1979 9   
1980 9   
1981 4   
1982 2   
1983 8   
1984 2   
1985 10  
1986 92  
1987 10  
1988 9   
1989 7   
1990 96  
1991 3   
1992 2   
1993 4   
1994 68  
1995 4   
1996 3   
1997 6   
1998 6   
1999 97  
2000 5   
2001 4   
2002 9   
2003 9   
2004 3   
2005 10  
2006 61  
2007 6   
2008 5   
2009 75  
2010 5   
2011 78  
2012 9   
2013 6   
2014 7   
2015 9   
2016 4   
2017 5   
2018 9   
2019 10  
2020 1   
2021 1   
2022 10  
2023 3   
2024 4   
2025 3   
2026 63  
2027 58  
2028 2   
2029 1   
2030 97  
2031 8   
2032 4   
2033 91  
2034 4   
2035 10  
2036 9   
2037 10  
2038 2   
2039 83  
2040 4   
2041 5   
2042 7   
2043 51  
2044 7   
2045 10  
2046 1   
2047 8   
2048 4   
2049 9   
2050 7   
2051 1   
2052 9   
2053 10  
2054 8   
2055 2   
2056 2   
2057 3   
2058 3   
2059 87  
2060 2   
2061 9   
2062 53  
2063 5   
2064 57  
2065 1   
2066 60  
2067 7   
2068 3   
2069 4   
2070 63  
2071 60  
2072 10  
2073 5   
2074 6   
2075 6   
2076 7   
2077 3   
2078 7   
2079 4   
2080 72  
2081 2   
2082 4   
2083 3   
2084 7   
2085 9   
2086 6   
2087 1   
2088 9   
2089 6   
2090 10  
2091 1   
2092 5   
2093 4   
2094 4   
2095 8   
2096 10  
2097 3   
2098 9   
2099 7   
2100 5   
2101 7   
2102 74  
2103 3   
2104 2   
2105 8   
2106 2   
2107 6   
2108 71  
2109 9   
2110 4   
2111 5   
2112 8   
2113 82  
2114 9   
2115 7   
2116 1   
2117 5   
2118 5   
2119 9   
2120 58  
2121 5   
2122 94  
2123 86  
2124 8   
2125 8   
2126 7   
2127 7   
2128 4   
2129 10  
2130 7   
2131 7   
2132 5   
2133 65  
2134 3   
2135 7   
2136 4   
2137 1   
2138 5   
2139 1   
2140 8   
2141 88  
2142 10  
2143 1   
2144 9   
2145 1   
2146 8   
2147 9   
2148 5   
2149 1   
2150 99  
2151 10  
2152 75  
2153 4   
2154 50  
2155 1   
2156 10  
2157 10  
2158 1   
2159 2   
2160 3   
2161 62  
2162 10  
2163 3   
2164 8   
2165 52  
2166 5   
2167 2   
2168 10  
2169 73  
2170 72  
2171 5   
2172 6   
2173 2   
2174 3   
2175 3   
2176 9   
2177 7   
2178 68  
2179 92  
2180 9   
2181 10  
2182 10  
2183 9   
2184 8   
2185 6   
2186 1   
2187 2   
2188 6   
2189 4   
2190 10  
2191 1   
2192 9   
2193 7   
2194 51  
2195 7   
2196 1   
2197 10  
2198 69  
2199 81  
2200 50  
2201 7   
2202 4   
2203 5   
2204 55  
2205 2   
2206 5   
2207 7   
2208 8   
2209 9   
2210 1   
2211 10  
2212 2   
2213 10  
2214 8   
2215 2   
2216 10  
2217 5   
2218 70  
2219 3   
2220 10  
2221 7   
2222 6   
2223 7   
2224 10  
2225 10  
2226 3   
2227 88  
2228 2   
2229 8   
2230 7   
2231 6   
2232 6   
2233 7   
2234 10  
2235 6   
2236 5   
2237 7   
2238 6   
2239 8   
2240 80  
2241 97  
2242 90  
2243 3   
2244 9   
2245 9   
2246 77  
2247 8   
2248 58  
2249 9   
2250 1   
2251 3   
2252 9   
2253 9   
2254 7   
2255 1   
2256 2   
2257 4   
2258 3   
2259 9   
2260 76  
2261 1   
2262 3   
2263 9   
2264 75  
2265 68  
2266 52  
2267 81  
2268 79  
2269 4   
2270 4   
2271 6   
2272 6   
2273 4   
2274 10  
2275 1   
2276 6   
2277 8   
2278 6   
2279 7   
2280 1   
2281 10  
2282 4   
2283 1   
2284 91  
2285 6   
2286 6   
2287 98  
2288 8   
2289 8   
2290 2   
2291 6   
2292 69  
2293 6   
2294 7   
2295 10  
2296 5   
2297 54  
2298 83  
2299 10  
2300 8   
2301 51  
2302 3   
2303 5   
2304 93  
2305 5   
2306 3   
2307 10  
2308 7   
2309 4   
2310 10  
2311 6   
2312 64  
2313 75  
2314 7   
2315 51  
2316 10  
2317 80  
2318 6   
2319 2   
2320 4   
2321 4   
2322 4   
2323 65  
2324 5   
2325 77  
2326 7   
2327 5   
2328 1   
2329 9   
2330 2   
2331 75  
2332 4   
2333 95  
2334 1   
2335 4   
2336 4   
2337 7   
2338 9   
2339 7   
2340 1   
2341 10  
2342 4   
2343 2   
2344 1   
2345 3   
2346 5   
2347 4   
2348 5   
2349 4   
2350 8   
2351 6   
2352 7   
2353 4   
2354 10  
2355 2   
2356 6   
2357 5   
2358 5   
2359 7   
2360 7   
2361 6   
2362 4   
2363 7   
2364 10  
2365 3   
2366 4   
2367 6   
2368 5   
2369 4   
2370 10  
2371 3   
2372 53  
2373 6   
2374 7   
2375 88  
2376 95  
2377 4   
2378 97  
2379 1   
2380 4   
2381 10  
2382 10  
2383 2   
2384 4   
2385 10  
2386 5   
2387 2   
2388 9   
2389 7   
2390 5   
2391 9   
2392 8   
2393 3   
2394 8   
2395 93  
2396 8   
2397 51  
2398 6   
2399 3   
2400 3   
2401 4   
2402 5   
2403 61  
2404 4   
2405 6   
2406 95  
2407 65  
2408 3   
2409 1   
2410 68  
2411 9   
2412 10  
2413 5   
2414 5   
2415 1   
2416 2   
2417 88  
2418 3   
2419 4   
2420 2   
2421 5   
2422 60  
2423 5   
2424 82  
2425 2   
2426 3   
2427 6   
2428 65  
2429 55  
2430 64  
2431 9   
2432 67  
2433 9   
2434 1   
2435 10  
2436 5   
2437 2   
2438 7   
2439 6   
2440 70  
2441 3   
2442 97  
2443 5   
2444 7   
2445 6   
2446 6   
2447 9   
2448 3   
2449 9   
2450 6   
2451 3   
2452 8   
2453 98  
2454 10  
2455 4   
2456 56  
2457 4   
2458 7   
2459 2   
2460 7   
2461 6   
2462 5   
2463 1   
2464 81  
2465 10  
2466 2   
2467 2   
2468 8   
2469 8   
2470 7   
2471 64  
2472 10  
2473 2   
2474 6   
2475 50  
2476 1   
2477 6   
2478 10  
2479 2   
2480 3   
2481 3   
2482 4   
2483 9   
2484 6   
2485 5   
2486 3   
2487 4   
2488 7   
2489 4   
2490 7   
2491 8   
2492 7   
2493 10  
2494 10  
2495 10  
2496 75  
2497 1   
2498 5   
2499 1   
2500 7   
2501 73  
2502 2   
2503 10  
2504 6   
2505 9   
2506 6   
2507 4   
2508 10  
2509 10  
2510 2   
2511 1   
2512 3   
2513 9   
2514 3   
2515 7   
2516 10  
2517 8   
2518 97  
2519 7   
2520 2   
2521 8   
2522 60  
2523 91  
2524 3   
2525 8   
2526 70  
2527 2   
2528 8   
2529 9   
2530 10  
2531 5   
2532 64  
2533 4   
2534 10  
2535 10  
2536 58  
2537 3   
2538 59  
2539 8   
2540 8   
2541 92  
2542 5   
2543 3   
2544 1   
2545 1   
2546 6   
2547 9   
2548 4   
2549 7   
2550 3   
2551 8   
2552 8   
2553 68  
2554 8   
2555 7   
2556 98  
2557 3   
2558 3   
2559 4   
2560 1   
2561 1   
2562 80  
2563 8   
2564 72  
2565 5   
2566 55  
2567 6   
2568 6   
2569 2   
2570 8   
2571 2   
2572 8   
2573 5   
2574 6   
2575 4   
2576 7   
2577 7   
2578 8   
2579 4   
2580 4   
2581 1   
2582 10  
2583 7   
2584 9   
2585 8   
2586 6   
2587 8   
2588 1   
2589 9   
2590 3   
2591 7   
2592 6   
2593 1   
2594 2   
2595 100 
2596 1   
2597 5   
2598 7   
2599 8   
2600 67  
2601 10  
2602 4   
2603 8   
2604 9   
2605 10  
2606 3   
2607 4   
2608 2   
2609 7   
2610 2   
2611 2   
2612 5   
2613 78  
2614 9   
2615 10  
2616 10  
2617 3   
2618 4   
2619 10  
2620 9   
2621 9   
2622 2   
2623 9   
2624 54  
2625 9   
2626 7   
2627 9   
2628 6   
2629 4   
2630 3   
2631 7   
2632 81  
2633 5   
2634 8   
2635 4   
2636 90  
2637 1   
2638 5   
2639 4   
2640 1   
2641 3   
2642 89  
2643 3   
2644 6   
2645 3   
2646 4   
2647 3   
2648 7   
2649 9   
2650 98  
2651 3   
2652 7   
2653 3   
2654 6   
2655 5   
2656 66  
2657 1   
2658 9   
2659 2   
2660 92  
2661 9   
2662 4   
2663 4   
2664 6   
2665 74  
2666 88  
2667 9   
2668 10  
2669 4   
2670 59  
2671 9   
2672 2   
2673 91  
2674 62  
2675 7   
2676 3   
2677 8   
2678 2   
2679 4   
2680 2   
2681 53  
2682 8   
2683 7   
2684 2   
2685 2   
2686 10  
2687 3   
2688 1   
2689 9   
2690 73  
2691 4   
2692 70  
2693 9   
2694 7   
2695 52  
2696 8   
2697 6   
2698 60  
2699 6   
2700 74  
2701 5   
2702 9   
2703 79  
2704 1   
2705 6   
2706 3   
2707 4   
2708 2   
2709 1   
2710 5   
2711 4   
2712 97  
2713 7   
2714 5   
2715 5   
2716 1   
2717 1   
2718 8   
2719 3   
2720 5   
2721 8   
2722 3   
2723 61  
2724 3   
2725 1   
2726 3   
2727 5   
2728 61  
2729 5   
2730 2   
2731 2   
2732 5   
2733 10  
2734 4   
2735 4   
2736 8   
2737 10  
2738 5   
2739 2   
2740 5   
2741 1   
2742 5   
2743 1   
2744 83  
2745 4   
2746 6   
2747 10  
2748 8   
2749 5   
2750 62  
2751 9   
2752 4   
2753 8   
2754 6   
2755 4   
2756 65  
2757 61  
2758 80  
2759 8   
2760 10  
2761 6   
2762 50  
2763 8   
2764 5   
2765 6   
2766 72  
2767 100 
2768 4   
2769 3   
2770 7   
2771 2   
2772 63  
2773 2   
2774 4   
2775 2   
2776 8   
2777 96  
2778 6   
2779 6   
2780 52  
2781 10  
2782 88  
2783 1   
2784 5   
2785 5   
2786 65  
2787 1   
2788 3   
2789 89  
2790 8   
2791 8   
2792 87  
2793 4   
2794 9   
2795 60  
2796 56  
2797 10  
2798 10  
2799 77  
2800 96  
2801 6   
2802 2   
2803 4   
2804 60  
2805 10  
2806 93  
2807 5   
2808 10  
2809 64  
2810 2   
2811 6   
2812 58  
2813 7   
2814 79  
2815 10  
2816 5   
2817 2   
2818 5   
2819 10  
2820 3   
2821 1   
2822 5   
2823 7   
2824 8   
2825 4   
2826 10  
2827 3   
2828 2   
2829 2   
2830 5   
2831 59  
2832 6   
2833 5   
2834 10  
2835 9   
2836 6   
2837 2   
2838 5   
2839 64  
2840 8   
2841 3   
2842 10  
2843 2   
2844 5   
2845 6   
2846 10  
2847 85  
2848 6   
2849 7   
2850 3   
2851 9   
2852 10  
2853 89  
2854 6   
2855 7   
2856 5   
2857 7   
2858 8   
2859 4   
2860 8   
2861 3   
2862 1   
2863 10  
2864 7   
2865 2   
2866 5   
2867 3   
2868 7   
2869 10  
2870 96  
2871 3   
2872 8   
2873 6   
2874 5   
2875 7   
2876 9   
2877 4   
2878 9   
2879 7   
2880 10  
2881 8   
2882 70  
2883 6   
2884 9   
2885 7   
2886 5   
2887 8   
2888 1   
2889 1   
2890 100 
2891 3   
2892 2   
2893 10  
2894 10  
2895 5   
2896 4   
2897 3   
2898 6   
2899 3   
2900 4   
2901 8   
2902 8   
2903 10  
2904 4   
2905 63  
2906 5   
2907 84  
2908 3   
2909 83  
2910 5   
2911 6   
2912 56  
2913 10  
2914 5   
2915 2   
2916 9   
2917 3   
2918 9   
2919 3   
2920 7   
2921 2   
2922 8   
2923 10  
2924 4   
2925 5   
2926 8   
2927 6   
2928 93  
2929 2   
2930 2   
2931 2   
2932 1   
2933 4   
2934 9   
2935 7   
2936 88  
2937 78  
2938 3   
2939 52  
2940 63  
2941 8   
2942 9   
2943 6   
2944 10  
2945 79  
2946 5   
2947 8   
2948 1   
2949 7   
2950 10  
2951 10  
2952 2   
2953 7   
2954 10  
2955 60  
2956 3   
2957 3   
2958 6   
2959 52  
2960 7   
2961 10  
2962 2   
2963 9   
2964 1   
2965 2   
2966 1   
2967 8   
2968 91  
2969 5   
2970 3   
2971 9   
2972 9   
2973 2   
2974 2   
2975 87  
2976 58  
2977 1   
2978 10  
2979 4   
2980 3   
2981 7   
2982 2   
2983 64  
2984 5   
2985 2   
2986 3   
2987 7   
2988 10  
2989 90  
2990 8   
2991 59  
2992 80  
2993 3   
2994 2   
2995 64  
2996 6   
2997 1   
2998 9   
2999 62  
3000 3   
3001 5   
3002 7   
3003 5   
3004 5   
3005 2   
3006 66  
3007 6   
3008 7   
3009 6   
3010 7   
3011 6   
3012 1   
3013 9   
3014 9   
3015 1   
3016 1   
3017 80  
3018 6   
3019 9   
3020 7   
3021 83  
3022 2   
3023 7   
3024 6   
3025 7   
3026 7   
3027 8   
3028 85  
3029 3   
3030 10  
3031 2   
3032 7   
3033 71  
3034 10  
3035 5   
3036 1   
3037 4   
3038 1   
3039 7   
3040 8   
3041 4   
3042 90  
3043 2   
3044 10  
3045 8   
3046 5   
3047 76  
3048 3   
3049 96  
3050 62  
3051 4   
3052 78  
3053 5   
3054 8   
3055 6   
3056 4   
3057 5   
3058 10  
3059 4   
3060 2   
3061 1   
3062 2   
3063 6   
3064 4   
3065 6   
3066 82  
3067 1   
3068 10  
3069 8   
3070 2   
3071 61  
3072 3   
3073 7   
3074 55  
3075 8   
3076 2   
3077 7   
3078 6   
3079 4   
3080 65  
3081 5   
3082 10  
3083 8   
3084 7   
3085 5   
3086 8   
3087 6   
3088 8   
3089 6   
3090 63  
3091 1   
3092 1   
3093 6   
3094 3   
3095 58  
3096 56  
3097 5   
3098 1   
3099 59  
3100 66  
3101 8   
3102 9   
3103 100 
3104 68  
3105 1   
3106 8   
3107 9   
3108 5   
3109 94  
3110 5   
3111 9   
3112 8   
3113 6   
3114 89  
3115 2   
3116 9   
3117 10  
3118 57  
3119 1   
3120 7   
3121 3   
3122 2   
3123 88  
3124 1   
3125 2   
3126 5   
3127 9   
3128 9   
3129 51  
3130 2   
3131 6   
3132 9   
3133 6   
3134 4   
3135 5   
3136 5   
3137 78  
3138 2   
3139 94  
3140 2   
3141 72  
3142 2   
3143 5   
3144 4   
3145 8   
3146 2   
3147 1   
3148 7   
3149 3   
3150 65  
3151 9   
3152 55  
3153 6   
3154 59  
3155 3   
3156 87  
3157 6   
3158 3   
3159 3   
3160 2   
3161 6   
3162 76  
3163 10  
3164 10  
3165 4   
3166 51  
3167 2   
3168 1   
3169 90  
3170 8   
3171 63  
3172 5   
3173 6   
3174 4   
3175 3   
3176 5   
3177 77  
3178 6   
3179 4   
3180 6   
3181 1   
3182 10  
3183 3   
3184 1   
3185 94  
3186 85  
3187 8   
3188 10  
3189 9   
3190 6   
3191 7   
3192 93  
3193 8   
3194 1   
3195 58  
3196 84  
3197 2   
3198 74  
3199 10  
3200 4   
3201 3   
3202 57  
3203 10  
3204 85  
3205 6   
3206 98  
3207 4   
3208 96  
3209 10  
3210 2   
3211 2   
3212 10  
3213 96  
3214 5   
3215 2   
3216 69  
3217 8   
3218 5   
3219 9   
3220 9   
3221 6   
3222 99  
3223 3   
3224 4   
3225 7   
3226 4   
3227 6   
3228 8   
3229 8   
3230 9   
3231 3   
3232 87  
3233 5   
3234 5   
3235 7   
3236 63  
3237 4   
3238 93  
3239 6   
3240 6   
3241 5   
3242 2   
3243 58  
3244 3   
3245 4   
3246 2   
3247 75  
3248 5   
3249 10  
3250 4   
3251 8   
3252 6   
3253 10  
3254 8   
3255 10  
3256 3   
3257 88  
3258 4   
3259 4   
3260 77  
3261 5   
3262 3   
3263 2   
3264 1   
3265 1   
3266 9   
3267 2   
3268 10  
3269 50  
3270 3   
3271 7   
3272 8   
3273 8   
3274 8   
3275 2   
3276 4   
3277 89  
3278 5   
3279 2   
3280 5   
3281 9   
3282 79  
3283 7   
3284 9   
3285 3   
3286 67  
3287 9   
3288 3   
3289 1   
3290 5   
3291 5   
3292 1   
3293 8   
3294 2   
3295 7   
3296 7   
3297 4   
3298 8   
3299 5   
3300 5   
3301 9   
3302 10  
3303 66  
3304 1   
3305 2   
3306 2   
3307 4   
3308 79  
3309 3   
3310 4   
3311 57  
3312 3   
3313 84  
3314 7   
3315 9   
3316 74  
3317 55  
3318 70  
3319 3   
3320 8   
3321 58  
3322 8   
3323 7   
3324 5   
3325 86  
3326 7   
3327 2   
3328 5   
3329 1   
3330 9   
3331 8   
3332 1   
3333 1   
3334 2   
3335 5   
3336 70  
3337 1   
3338 92  
3339 5   
3340 1   
3341 2   
3342 3   
3343 7   
3344 4   
3345 4   
3346 2   
3347 10  
3348 8   
3349 4   
3350 6   
3351 5   
3352 50  
3353 3   
3354 4   
3355 9   
3356 2   
3357 2   
3358 9   
3359 82  
3360 3   
3361 3   
3362 59  
3363 9   
3364 9   
3365 9   
3366 10  
3367 4   
3368 83  
3369 8   
3370 1   
3371 2   
3372 5   
3373 3   
3374 3   
3375 7   
3376 91  
3377 2   
3378 9   
3379 5   
3380 7   
3381 2   
3382 5   
3383 95  
3384 3   
3385 6   
3386 5   
3387 6   
3388 7   
3389 7   
3390 8   
3391 1   
3392 2   
3393 3   
3394 7   
3395 5   
3396 75  
3397 80  
3398 6   
3399 3   
3400 5   
3401 2   
3402 7   
3403 60  
3404 1   
3405 1   
3406 82  
3407 4   
3408 4   
3409 3   
3410 71  
3411 5   
3412 9   
3413 7   
3414 6   
3415 8   
3416 9   
3417 5   
3418 62  
3419 8   
3420 2   
3421 5   
3422 66  
3423 10  
3424 4   
3425 1   
3426 73  
3427 9   
3428 91  
3429 5   
3430 10  
3431 3   
3432 8   
3433 10  
3434 6   
3435 10  
3436 1   
3437 3   
3438 58  
3439 8   
3440 5   
3441 9   
3442 7   
3443 3   
3444 3   
3445 6   
3446 8   
3447 1   
3448 82  
3449 2   
3450 5   
3451 6   
3452 2   
3453 1   
3454 88  
3455 5   
3456 7   
3457 97  
3458 5   
3459 2   
3460 4   
3461 9   
3462 100 
3463 7   
3464 3   
3465 6   
3466 2   
3467 64  
3468 10  
3469 2   
3470 4   
3471 8   
3472 7   
3473 8   
3474 6   
3475 4   
3476 71  
3477 3   
3478 2   
3479 5   
3480 7   
3481 3   
3482 10  
3483 7   
3484 6   
3485 3   
3486 9   
3487 75  
3488 2   
3489 1   
3490 8   
3491 3   
3492 90  
3493 3   
3494 9   
3495 10  
3496 61  
3497 1   
3498 56  
3499 97  
3500 4   
3501 1   
3502 5   
3503 9   
3504 2   
3505 10  
3506 4   
3507 5   
3508 1   
3509 5   
3510 7   
3511 4   
3512 4   
3513 10  
3514 82  
3515 5   
3516 70  
3517 10  
3518 1   
3519 8   
3520 8   
3521 1   
3522 81  
3523 4   
3524 3   
3525 5   
3526 83  
3527 5   
3528 8   
3529 7   
3530 4   
3531 2   
3532 10  
3533 88  
3534 1   
3535 3   
3536 2   
3537 61  
3538 9   
3539 1   
3540 1   
3541 4   
3542 8   
3543 92  
3544 65  
3545 63  
3546 9   
3547 7   
3548 6   
3549 8   
3550 8   
3551 5   
3552 3   
3553 8   
3554 99  
3555 6   
3556 2   
3557 8   
3558 1   
3559 9   
3560 10  
3561 6   
3562 7   
3563 10  
3564 86  
3565 88  
3566 3   
3567 63  
3568 7   
3569 78  
3570 7   
3571 10  
3572 4   
3573 7   
3574 2   
3575 3   
3576 2   
3577 5   
3578 10  
3579 4   
3580 6   
3581 7   
3582 1   
3583 77  
3584 5   
3585 4   
3586 61  
3587 1   
3588 7   
3589 7   
3590 9   
3591 4   
3592 76  
3593 55  
3594 10  
3595 6   
3596 9   
3597 67  
3598 3   
3599 89  
3600 84  
3601 10  
3602 3   
3603 90  
3604 10  
3605 3   
3606 6   
3607 2   
3608 5   
3609 8   
3610 2   
3611 75  
3612 2   
3613 86  
3614 9   
3615 1   
3616 10  
3617 51  
3618 92  
3619 70  
3620 6   
3621 8   
3622 7   
3623 9   
3624 6   
3625 4   
3626 72  
3627 76  
3628 66  
3629 3   
3630 4   
3631 8   
3632 10  
3633 68  
3634 1   
3635 3   
3636 58  
3637 6   
3638 63  
3639 7   
3640 9   
3641 5   
3642 5   
3643 90  
3644 4   
3645 9   
3646 6   
3647 89  
3648 1   
3649 7   
3650 4   
3651 9   
3652 2   
3653 7   
3654 81  
3655 1   
3656 9   
3657 8   
3658 4   
3659 81  
3660 6   
3661 3   
3662 9   
3663 5   
3664 4   
3665 7   
3666 8   
3667 7   
3668 8   
3669 9   
3670 6   
3671 7   
3672 5   
3673 8   
3674 61  
3675 10  
3676 91  
3677 6   
3678 5   
3679 6   
3680 73  
3681 2   
3682 3   
3683 2   
3684 8   
3685 6   
3686 5   
3687 7   
3688 5   
3689 7   
3690 1   
3691 9   
3692 2   
3693 6   
3694 1   
3695 10  
3696 3   
3697 8   
3698 10  
3699 10  
3700 10  
3701 5   
3702 5   
3703 2   
3704 3   
3705 7   
3706 1   
3707 7   
3708 9   
3709 6   
3710 92  
3711 65  
3712 67  
3713 7   
3714 9   
3715 5   
3716 7   
3717 65  
3718 8   
3719 10  
3720 4   
3721 4   
3722 6   
3723 8   
3724 4   
3725 5   
3726 3   
3727 4   
3728 8   
3729 6   
3730 6   
3731 2   
3732 9   
3733 7   
3734 6   
3735 10  
3736 9   
3737 5   
3738 6   
3739 71  
3740 80  
3741 10  
3742 10  
3743 9   
3744 6   
3745 9   
3746 9   
3747 9   
3748 4   
3749 61  
3750 2   
3751 7   
3752 93  
3753 2   
3754 10  
3755 69  
3756 10  
3757 95  
3758 4   
3759 1   
3760 2   
3761 79  
3762 1   
3763 2   
3764 10  
3765 99  
3766 74  
3767 4   
3768 1   
3769 6   
3770 7   
3771 8   
3772 6   
3773 9   
3774 4   
3775 5   
3776 2   
3777 6   
3778 9   
3779 7   
3780 1   
3781 9   
3782 2   
3783 7   
3784 9   
3785 5   
3786 8   
3787 8   
3788 7   
3789 3   
3790 2   
3791 3   
3792 8   
3793 5   
3794 6   
3795 1   
3796 71  
3797 8   
3798 2   
3799 55  
3800 7   
3801 78  
3802 1   
3803 5   
3804 9   
3805 9   
3806 78  
3807 9   
3808 8   
3809 10  
3810 5   
3811 10  
3812 5   
3813 8   
3814 8   
3815 8   
3816 10  
3817 6   
3818 5   
3819 2   
3820 63  
3821 57  
3822 6   
3823 80  
3824 8   
3825 2   
3826 1   
3827 7   
3828 10  
3829 10  
3830 2   
3831 10  
3832 7   
3833 7   
3834 9   
3835 2   
3836 72  
3837 5   
3838 6   
3839 5   
3840 10  
3841 2   
3842 52  
3843 2   
3844 9   
3845 5   
3846 93  
3847 1   
3848 2   
3849 78  
3850 3   
3851 2   
3852 1   
3853 9   
3854 4   
3855 7   
3856 10  
3857 2   
3858 54  
3859 5   
3860 9   
3861 74  
3862 9   
3863 2   
3864 4   
3865 8   
3866 8   
3867 3   
3868 7   
3869 4   
3870 4   
3871 3   
3872 2   
3873 4   
3874 1   
3875 1   
3876 3   
3877 6   
3878 78  
3879 4   
3880 6   
3881 91  
3882 8   
3883 59  
3884 9   
3885 2   
3886 8   
3887 84  
3888 9   
3889 8   
3890 3   
3891 4   
3892 56  
3893 7   
3894 4   
3895 4   
3896 5   
3897 3   
3898 2   
3899 1   
3900 68  
3901 4   
3902 1   
3903 77  
3904 82  
3905 6   
3906 2   
3907 1   
3908 8   
3909 57  
3910 3   
3911 10  
3912 3   
3913 99  
3914 1   
3915 90  
3916 7   
3917 6   
3918 8   
3919 6   
3920 79  
3921 1   
3922 5   
3923 97  
3924 5   
3925 5   
3926 2   
3927 1   
3928 5   
3929 3   
3930 3   
3931 53  
3932 4   
3933 10  
3934 1   
3935 65  
3936 3   
3937 7   
3938 2   
3939 3   
3940 4   
3941 10  
3942 7   
3943 5   
3944 3   
3945 7   
3946 7   
3947 67  
3948 6   
3949 2   
3950 5   
3951 7   
3952 6   
3953 1   
3954 3   
3955 6   
3956 7   
3957 1   
3958 2   
3959 10  
3960 6   
3961 7   
3962 1   
3963 10  
3964 1   
3965 1   
3966 6   
3967 4   
3968 1   
3969 79  
3970 1   
3971 69  
3972 8   
3973 4   
3974 5   
3975 7   
3976 1   
3977 9   
3978 8   
3979 3   
3980 2   
3981 3   
3982 10  
3983 71  
3984 4   
3985 80  
3986 1   
3987 8   
3988 10  
3989 57  
3990 3   
3991 5   
3992 57  
3993 5   
3994 4   
3995 75  
3996 10  
3997 6   
3998 5   
3999 5   
4000 3   
4001 9   
4002 4   
4003 1   
4004 55  
4005 7   
4006 9   
4007 10  
4008 76  
4009 84  
4010 2   
4011 8   
4012 9   
4013 5   
4014 2   
4015 10  
4016 2   
4017 5   
4018 10  
4019 6   
4020 100 
4021 9   
4022 93  
4023 2   
4024 2   
4025 1   
4026 4   
4027 8   
4028 7   
4029 2   
4030 81  
4031 2   
4032 4   
4033 66  
4034 1   
4035 10  
4036 10  
4037 9   
4038 97  
4039 7   
4040 3   
4041 3   
4042 7   
4043 96  
4044 3   
4045 8   
4046 10  
4047 6   
4048 5   
4049 55  
4050 8   
4051 3   
4052 9   
4053 58  
4054 1   
4055 8   
4056 58  
4057 2   
4058 5   
4059 2   
4060 6   
4061 7   
4062 50  
4063 59  
4064 10  
4065 1   
4066 8   
4067 3   
4068 3   
4069 5   
4070 4   
4071 10  
4072 81  
4073 54  
4074 85  
4075 7   
4076 10  
4077 1   
4078 3   
4079 4   
4080 6   
4081 1   
4082 10  
4083 67  
4084 7   
4085 8   
4086 1   
4087 9   
4088 9   
4089 5   
4090 8   
4091 3   
4092 7   
4093 6   
4094 7   
4095 8   
4096 1   
4097 3   
4098 5   
4099 7   
4100 89  
4101 1   
4102 4   
4103 10  
4104 1   
4105 10  
4106 74  
4107 85  
4108 4   
4109 3   
4110 2   
4111 2   
4112 5   
4113 10  
4114 10  
4115 90  
4116 2   
4117 8   
4118 8   
4119 5   
4120 62  
4121 7   
4122 2   
4123 57  
4124 3   
4125 4   
4126 1   
4127 8   
4128 7   
4129 63  
4130 74  
4131 7   
4132 8   
4133 7   
4134 9   
4135 6   
4136 8   
4137 5   
4138 1   
4139 3   
4140 55  
4141 6   
4142 2   
4143 10  
4144 8   
4145 6   
4146 7   
4147 10  
4148 2   
4149 70  
4150 5   
4151 4   
4152 5   
4153 6   
4154 7   
4155 5   
4156 6   
4157 6   
4158 5   
4159 5   
4160 2   
4161 75  
4162 7   
4163 52  
4164 10  
4165 83  
4166 3   
4167 2   
4168 57  
4169 79  
4170 9   
4171 100 
4172 10  
4173 3   
4174 1   
4175 7   
4176 9   
4177 7   
4178 2   
4179 5   
4180 67  
4181 5   
4182 8   
4183 7   
4184 4   
4185 8   
4186 2   
4187 2   
4188 68  
4189 7   
4190 2   
4191 8   
4192 9   
4193 9   
4194 3   
4195 7   
4196 3   
4197 5   
4198 51  
4199 4   
4200 6   
4201 9   
4202 2   
4203 6   
4204 2   
4205 10  
4206 85  
4207 1   
4208 55  
4209 10  
4210 7   
4211 8   
4212 10  
4213 3   
4214 67  
4215 74  
4216 9   
4217 5   
4218 86  
4219 1   
4220 8   
4221 1   
4222 7   
4223 6   
4224 9   
4225 7   
4226 84  
4227 7   
4228 2   
4229 9   
4230 1   
4231 10  
4232 99  
4233 3   
4234 8   
4235 99  
4236 5   
4237 2   
4238 7   
4239 10  
4240 9   
4241 3   
4242 3   
4243 1   
4244 8   
4245 59  
4246 5   
4247 4   
4248 8   
4249 59  
4250 1   
4251 7   
4252 8   
4253 9   
4254 7   
4255 3   
4256 8   
4257 3   
4258 56  
4259 10  
4260 8   
4261 9   
4262 1   
4263 98  
4264 79  
4265 5   
4266 6   
4267 2   
4268 5   
4269 5   
4270 5   
4271 4   
4272 3   
4273 7   
4274 10  
4275 1   
4276 9   
4277 8   
4278 5   
4279 58  
4280 6   
4281 10  
4282 6   
4283 4   
4284 82  
4285 6   
4286 4   
4287 6   
4288 6   
4289 6   
4290 75  
4291 3   
4292 1   
4293 6   
4294 8   
4295 5   
4296 5   
4297 7   
4298 6   
4299 2   
4300 2   
4301 99  
4302 95  
4303 3   
4304 74  
4305 64  
4306 10  
4307 1   
4308 1   
4309 10  
4310 76  
4311 8   
4312 10  
4313 9   
4314 7   
4315 3   
4316 3   
4317 10  
4318 91  
4319 6   
4320 9   
4321 89  
4322 4   
4323 4   
4324 8   
4325 9   
4326 5   
4327 87  
4328 10  
4329 9   
4330 73  
4331 5   
4332 1   
4333 10  
4334 1   
4335 56  
4336 51  
4337 8   
4338 88  
4339 50  
4340 3   
4341 10  
4342 10  
4343 60  
4344 6   
4345 5   
4346 75  
4347 9   
4348 5   
4349 8   
4350 7   
4351 4   
4352 10  
4353 7   
4354 9   
4355 67  
4356 7   
4357 70  
4358 2   
4359 10  
4360 62  
4361 66  
4362 52  
4363 2   
4364 4   
4365 65  
4366 1   
4367 3   
4368 51  
4369 4   
4370 5   
4371 5   
4372 5   
4373 5   
4374 8   
4375 5   
4376 2   
4377 4   
4378 2   
4379 76  
4380 5   
4381 81  
4382 1   
4383 80  
4384 6   
4385 92  
4386 63  
4387 3   
4388 3   
4389 1   
4390 54  
4391 9   
4392 5   
4393 8   
4394 2   
4395 69  
4396 5   
4397 78  
4398 6   
4399 2   
4400 1   
4401 4   
4402 2   
4403 2   
4404 7   
4405 77  
4406 3   
4407 9   
4408 6   
4409 3   
4410 95  
4411 4   
4412 7   
4413 10  
4414 4   
4415 1   
4416 4   
4417 9   
4418 10  
4419 6   
4420 9   
4421 5   
4422 8   
4423 5   
4424 77  
4425 9   
4426 1   
4427 63  
4428 4   
4429 7   
4430 8   
4431 95  
4432 9   
4433 1   
4434 5   
4435 5   
4436 90  
4437 6   
4438 6   
4439 6   
4440 10  
4441 9   
4442 2   
4443 4   
4444 5   
4445 8   
4446 1   
4447 10  
4448 2   
4449 7   
4450 52  
4451 55  
4452 10  
4453 9   
4454 9   
4455 7   
4456 5   
4457 70  
4458 1   
4459 6   
4460 1   
4461 50  
4462 6   
4463 64  
4464 7   
4465 5   
4466 10  
4467 5   
4468 9   
4469 10  
4470 64  
4471 8   
4472 86  
4473 6   
4474 63  
4475 8   
4476 7   
4477 54  
4478 78  
4479 10  
4480 53  
4481 3   
4482 5   
4483 7   
4484 5   
4485 7   
4486 4   
4487 2   
4488 8   
4489 8   
4490 7   
4491 4   
4492 7   
4493 8   
4494 90  
4495 5   
4496 10  
4497 8   
4498 7   
4499 4   
4500 76  
4501 9   
4502 95  
4503 2   
4504 9   
4505 66  
4506 83  
4507 8   
4508 5   
4509 1   
4510 7   
4511 10  
4512 1   
4513 6   
4514 10  
4515 10  
4516 1   
4517 7   
4518 91  
4519 1   
4520 5   
4521 10  
4522 9   
4523 6   
4524 60  
4525 81  
4526 8   
4527 1   
4528 4   
4529 9   
4530 5   
4531 6   
4532 92  
4533 7   
4534 2   
4535 2   
4536 8   
4537 6   
4538 9   
4539 5   
4540 3   
4541 7   
4542 8   
4543 6   
4544 10  
4545 6   
4546 10  
4547 4   
4548 83  
4549 8   
4550 9   
4551 5   
4552 8   
4553 3   
4554 4   
4555 9   
4556 1   
4557 66  
4558 58  
4559 5   
4560 1   
4561 4   
4562 69  
4563 4   
4564 94  
4565 8   
4566 85  
4567 9   
4568 8   
4569 80  
4570 1   
4571 6   
4572 1   
4573 3   
4574 94  
4575 10  
4576 6   
4577 52  
4578 8   
4579 2   
4580 3   
4581 7   
4582 9   
4583 6   
4584 7   
4585 66  
4586 10  
4587 8   
4588 86  
4589 3   
4590 8   
4591 75  
4592 2   
4593 8   
4594 5   
4595 8   
4596 7   
4597 67  
4598 6   
4599 68  
4600 6   
4601 5   
4602 86  
4603 60  
4604 2   
4605 59  
4606 87  
4607 67  
4608 81  
4609 9   
4610 2   
4611 1   
4612 9   
4613 5   
4614 66  
4615 2   
4616 2   
4617 51  
4618 4   
4619 9   
4620 3   
4621 10  
4622 8   
4623 4   
4624 95  
4625 4   
4626 5   
4627 3   
4628 4   
4629 55  
4630 8   
4631 7   
4632 5   
4633 6   
4634 10  
4635 1   
4636 5   
4637 1   
4638 9   
4639 9   
4640 4   
4641 10  
4642 4   
4643 8   
4644 10  
4645 10  
4646 7   
4647 6   
4648 1   
4649 8   
4650 7   
4651 5   
4652 3   
4653 54  
4654 9   
4655 9   
4656 6   
4657 70  
4658 7   
4659 2   
4660 8   
4661 8   
4662 2   
4663 3   
4664 3   
4665 2   
4666 5   
4667 1   
4668 4   
4669 2   
4670 5   
4671 6   
4672 84  
4673 3   
4674 3   
4675 7   
4676 60  
4677 2   
4678 57  
4679 4   
4680 5   
4681 8   
4682 8   
4683 72  
4684 8   
4685 84  
4686 9   
4687 8   
4688 2   
4689 92  
4690 3   
4691 71  
4692 6   
4693 8   
4694 8   
4695 6   
4696 7   
4697 8   
4698 97  
4699 10  
4700 4   
4701 54  
4702 3   
4703 3   
4704 83  
4705 5   
4706 6   
4707 8   
4708 4   
4709 7   
4710 9   
4711 10  
4712 6   
4713 3   
4714 1   
4715 5   
4716 59  
4717 10  
4718 54  
4719 9   
4720 91  
4721 3   
4722 1   
4723 3   
4724 2   
4725 3   
4726 8   
4727 6   
4728 9   
4729 10  
4730 8   
4731 6   
4732 2   
4733 5   
4734 10  
4735 1   
4736 8   
4737 9   
4738 5   
4739 10  
4740 7   
4741 94  
4742 2   
4743 79  
4744 76  
4745 3   
4746 56  
4747 1   
4748 10  
4749 2   
4750 2   
4751 7   
4752 7   
4753 1   
4754 8   
4755 5   
4756 10  
4757 2   
4758 7   
4759 5   
4760 2   
4761 5   
4762 72  
4763 62  
4764 77  
4765 10  
4766 6   
4767 9   
4768 3   
4769 7   
4770 96  
4771 1   
4772 6   
4773 10  
4774 4   
4775 3   
4776 8   
4777 7   
4778 7   
4779 5   
4780 8   
4781 94  
4782 5   
4783 10  
4784 4   
4785 9   
4786 3   
4787 8   
4788 8   
4789 7   
4790 3   
4791 10  
4792 7   
4793 5   
4794 9   
4795 10  
4796 4   
4797 3   
4798 7   
4799 3   
4800 1   
4801 7   
4802 6   
4803 7   
4804 3   
4805 8   
4806 10  
4807 3   
4808 9   
4809 1   
4810 2   
4811 2   
4812 4   
4813 3   
4814 64  
4815 4   
4816 2   
4817 6   
4818 4   
4819 3   
4820 6   
4821 10  
4822 7   
4823 62  
4824 58  
4825 3   
4826 88  
4827 2   
4828 5   
4829 84  
4830 1   
4831 2   
4832 67  
4833 8   
4834 5   
4835 4   
4836 1   
4837 4   
4838 86  
4839 3   
4840 7   
4841 10  
4842 56  
4843 50  
4844 5   
4845 10  
4846 6   
4847 8   
4848 8   
4849 3   
4850 2   
4851 2   
4852 9   
4853 2   
4854 7   
4855 6   
4856 8   
4857 4   
4858 10  
4859 10  
4860 3   
4861 6   
4862 4   
4863 91  
4864 3   
4865 7   
4866 7   
4867 3   
4868 7   
4869 92  
4870 77  
4871 9   
4872 5   
4873 1   
4874 2   
4875 9   
4876 93  
4877 62  
4878 4   
4879 8   
4880 69  
4881 6   
4882 8   
4883 76  
4884 7   
4885 96  
4886 3   
4887 10  
4888 74  
4889 10  
4890 1   
4891 5   
4892 86  
4893 9   
4894 3   
4895 5   
4896 9   
4897 7   
4898 61  
4899 65  
4900 51  
4901 9   
4902 1   
4903 9   
4904 96  
4905 2   
4906 5   
4907 8   
4908 3   
4909 71  
4910 6   
4911 2   
4912 7   
4913 8   
4914 53  
4915 68  
4916 7   
4917 3   
4918 2   
4919 10  
4920 7   
4921 1   
4922 94  
4923 9   
4924 4   
4925 60  
4926 6   
4927 10  
4928 2   
4929 3   
4930 3   
4931 77  
4932 2   
4933 3   
4934 1   
4935 51  
4936 84  
4937 9   
4938 1   
4939 8   
4940 2   
4941 9   
4942 2   
4943 73  
4944 7   
4945 9   
4946 9   
4947 6   
4948 2   
4949 8   
4950 8   
4951 2   
4952 63  
4953 9   
4954 7   
4955 84  
4956 51  
4957 97  
4958 10  
4959 5   
4960 1   
4961 9   
4962 8   
4963 1   
4964 7   
4965 2   
4966 6   
4967 10  
4968 5   
4969 4   
4970 97  
4971 10  
4972 3   
4973 6   
4974 8   
4975 2   
4976 3   
4977 7   
4978 8   
4979 7   
4980 7   
4981 7   
4982 10  
4983 92  
4984 7   
4985 7   
4986 91  
4987 7   
4988 5   
4989 2   
4990 5   
4991 7   
4992 95  
4993 8   
4994 7   
4995 8   
4996 10  
4997 10  
4998 4   
4999 8   
5000 100 
5001 1   
5002 1   
5003 4   
5004 9   
5005 70  
5006 9   
5007 3   
5008 4   
5009 98  
5010 5   
5011 6   
5012 3   
5013 8   
5014 2   
5015 5   
5016 5   
5017 4   
5018 10  
5019 62  
5020 8   
5021 3   
5022 3   
5023 7   
5024 7   
5025 2   
5026 7   
5027 9   
5028 3   
5029 55  
5030 8   
5031 69  
5032 97  
5033 99  
5034 88  
5035 57  
5036 9   
5037 1   
5038 8   
5039 4   
5040 10  
5041 5   
5042 7   
5043 2   
5044 2   
5045 7   
5046 4   
5047 9   
5048 7   
5049 1   
5050 95  
5051 9   
5052 4   
5053 7   
5054 4   
5055 10  
5056 3   
5057 2   
5058 78  
5059 7   
5060 2   
5061 3   
5062 5   
5063 96  
5064 4   
5065 10  
5066 9   
5067 8   
5068 60  
5069 1   
5070 8   
5071 58  
5072 6   
5073 4   
5074 8   
5075 1   
5076 5   
5077 1   
5078 52  
5079 9   
5080 6   
5081 97  
5082 89  
5083 8   
5084 5   
5085 1   
5086 2   
5087 7   
5088 9   
5089 90  
5090 10  
5091 8   
5092 3   
5093 5   
5094 2   
5095 1   
5096 1   
5097 3   
5098 97  
5099 3   
5100 9   
5101 3   
5102 8   
5103 7   
5104 69  
5105 10  
5106 7   
5107 10  
5108 75  
5109 69  
5110 4   
5111 9   
5112 10  
5113 7   
5114 7   
5115 2   
5116 99  
5117 4   
5118 100 
5119 10  
5120 3   
5121 7   
5122 10  
5123 4   
5124 1   
5125 1   
5126 2   
5127 1   
5128 1   
5129 84  
5130 9   
5131 7   
5132 5   
5133 5   
5134 4   
5135 6   
5136 9   
5137 7   
5138 99  
5139 94  
5140 93  
5141 1   
5142 7   
5143 1   
5144 10  
5145 1   
5146 3   
5147 5   
5148 6   
5149 5   
5150 8   
5151 3   
5152 7   
5153 6   
5154 10  
5155 5   
5156 4   
5157 4   
5158 9   
5159 2   
5160 50  
5161 9   
5162 56  
5163 3   
5164 2   
5165 5   
5166 3   
5167 6   
5168 9   
5169 6   
5170 90  
5171 6   
5172 3   
5173 72  
5174 10  
5175 4   
5176 2   
5177 5   
5178 7   
5179 9   
5180 2   
5181 2   
5182 3   
5183 2   
5184 91  
5185 9   
5186 4   
5187 8   
5188 7   
5189 5   
5190 7   
5191 6   
5192 2   
5193 10  
5194 4   
5195 4   
5196 52  
5197 3   
5198 4   
5199 71  
5200 7   
5201 8   
5202 6   
5203 7   
5204 2   
5205 96  
5206 4   
5207 5   
5208 100 
5209 98  
5210 55  
5211 8   
5212 51  
5213 9   
5214 6   
5215 3   
5216 10  
5217 7   
5218 58  
5219 8   
5220 6   
5221 2   
5222 9   
5223 2   
5224 2   
5225 2   
5226 10  
5227 5   
5228 57  
5229 10  
5230 4   
5231 10  
5232 3   
5233 6   
5234 10  
5235 6   
5236 3   
5237 73  
5238 70  
5239 7   
5240 5   
5241 3   
5242 10  
5243 9   
5244 8   
5245 7   
5246 6   
5247 10  
5248 2   
5249 2   
5250 8   
5251 50  
5252 5   
5253 82  
5254 4   
5255 76  
5256 6   
5257 10  
5258 5   
5259 73  
5260 90  
5261 8   
5262 1   
5263 6   
5264 2   
5265 7   
5266 84  
5267 2   
5268 2   
5269 8   
5270 92  
5271 8   
5272 8   
5273 3   
5274 8   
5275 1   
5276 5   
5277 2   
5278 9   
5279 5   
5280 8   
5281 93  
5282 6   
5283 1   
5284 1   
5285 9   
5286 8   
5287 7   
5288 2   
5289 1   
5290 10  
5291 2   
5292 3   
5293 82  
5294 5   
5295 10  
5296 5   
5297 4   
5298 57  
5299 4   
5300 6   
5301 6   
5302 5   
5303 10  
5304 10  
5305 1   
5306 3   
5307 100 
5308 79  
5309 7   
5310 4   
5311 5   
5312 9   
5313 67  
5314 3   
5315 5   
5316 7   
5317 8   
5318 6   
5319 9   
5320 61  
5321 7   
5322 2   
5323 90  
5324 9   
5325 3   
5326 3   
5327 9   
5328 9   
5329 84  
5330 64  
5331 10  
5332 10  
5333 96  
5334 1   
5335 1   
5336 3   
5337 8   
5338 3   
5339 9   
5340 74  
5341 78  
5342 97  
5343 2   
5344 7   
5345 10  
5346 8   
5347 2   
5348 6   
5349 78  
5350 78  
5351 2   
5352 3   
5353 67  
5354 6   
5355 7   
5356 60  
5357 2   
5358 1   
5359 4   
5360 5   
5361 3   
5362 8   
5363 8   
5364 6   
5365 2   
5366 1   
5367 2   
5368 4   
5369 8   
5370 2   
5371 2   
5372 53  
5373 2   
5374 7   
5375 1   
5376 8   
5377 6   
5378 8   
5379 1   
5380 6   
5381 3   
5382 1   
5383 2   
5384 5   
5385 4   
5386 4   
5387 5   
5388 9   
5389 9   
5390 2   
5391 7   
5392 3   
5393 7   
5394 10  
5395 6   
5396 8   
5397 8   
5398 82  
5399 6   
5400 3   
5401 3   
5402 4   
5403 8   
5404 9   
5405 5   
5406 5   
5407 64  
5408 4   
5409 1   
5410 83  
5411 7   
5412 60  
5413 3   
5414 2   
5415 5   
5416 9   
5417 4   
5418 1   
5419 65  
5420 7   
5421 9   
5422 2   
5423 7   
5424 1   
5425 10  
5426 4   
5427 92  
5428 5   
5429 92  
5430 8   
5431 8   
5432 8   
5433 5   
5434 2   
5435 4   
5436 6   
5437 2   
5438 3   
5439 3   
5440 87  
5441 6   
5442 3   
5443 70  
5444 53  
5445 3   
5446 2   
5447 7   
5448 3   
5449 10  
5450 9   
5451 2   
5452 54  
5453 7   
5454 9   
5455 8   
5456 5   
5457 7   
5458 95  
5459 2   
5460 4   
5461 10  
5462 8   
5463 2   
5464 89  
5465 10  
5466 5   
5467 2   
5468 7   
5469 8   
5470 7   
5471 4   
5472 1   
5473 2   
5474 2   
5475 98  
5476 4   
5477 7   
5478 1   
5479 70  
5480 3   
5481 1   
5482 6   
5483 1   
5484 6   
5485 1   
5486 1   
5487 2   
5488 8   
5489 3   
5490 76  
5491 1   
5492 4   
5493 4   
5494 5   
5495 1   
5496 53  
5497 10  
5498 6   
5499 87  
5500 4   
5501 5   
5502 91  
5503 10  
5504 5   
5505 4   
5506 7   
5507 1   
5508 77  
5509 8   
5510 9   
5511 80  
5512 6   
5513 8   
5514 10  
5515 93  
5516 68  
5517 9   
5518 9   
5519 9   
5520 99  
5521 97  
5522 59  
5523 7   
5524 6   
5525 3   
5526 75  
5527 50  
5528 10  
5529 10  
5530 1   
5531 77  
5532 5   
5533 1   
5534 4   
5535 9   
5536 6   
5537 5   
5538 82  
5539 5   
5540 5   
5541 4   
5542 6   
5543 64  
5544 94  
5545 5   
5546 57  
5547 7   
5548 9   
5549 7   
5550 5   
5551 1   
5552 9   
5553 51  
5554 4   
5555 2   
5556 5   
5557 8   
5558 10  
5559 2   
5560 8   
5561 4   
5562 2   
5563 2   
5564 1   
5565 7   
5566 51  
5567 5   
5568 6   
5569 100 
5570 8   
5571 9   
5572 8   
5573 8   
5574 3   
5575 3   
5576 3   
5577 7   
5578 4   
5579 2   
5580 5   
5581 8   
5582 8   
5583 4   
5584 4   
5585 1   
5586 4   
5587 1   
5588 5   
5589 1   
5590 4   
5591 1   
5592 7   
5593 9   
5594 4   
5595 1   
5596 4   
5597 1   
5598 3   
5599 5   
5600 77  
5601 2   
5602 9   
5603 4   
5604 5   
5605 3   
5606 2   
5607 10  
5608 95  
5609 4   
5610 5   
5611 7   
5612 4   
5613 8   
5614 8   
5615 3   
5616 7   
5617 52  
5618 2   
5619 50  
5620 9   
5621 4   
5622 75  
5623 2   
5624 9   
5625 96  
5626 4   
5627 90  
5628 9   
5629 56  
5630 71  
5631 7   
5632 5   
5633 2   
5634 5   
5635 4   
5636 66  
5637 5   
5638 2   
5639 3   
5640 1   
5641 5   
5642 4   
5643 3   
5644 4   
5645 6   
5646 87  
5647 8   
5648 1   
5649 54  
5650 6   
5651 1   
5652 7   
5653 1   
5654 9   
5655 1   
5656 2   
5657 5   
5658 61  
5659 3   
5660 9   
5661 3   
5662 90  
5663 8   
5664 57  
5665 9   
5666 52  
5667 8   
5668 6   
5669 3   
5670 9   
5671 1   
5672 5   
5673 8   
5674 8   
5675 1   
5676 9   
5677 5   
5678 3   
5679 7   
5680 10  
5681 10  
5682 5   
5683 9   
5684 6   
5685 6   
5686 4   
5687 2   
5688 10  
5689 4   
5690 6   
5691 53  
5692 6   
5693 5   
5694 8   
5695 1   
5696 7   
5697 56  
5698 1   
5699 5   
5700 8   
5701 1   
5702 8   
5703 82  
5704 5   
5705 2   
5706 7   
5707 1   
5708 5   
5709 4   
5710 4   
5711 10  
5712 4   
5713 5   
5714 1   
5715 2   
5716 4   
5717 1   
5718 1   
5719 2   
5720 7   
5721 3   
5722 1   
5723 64  
5724 8   
5725 10  
5726 3   
5727 6   
5728 89  
5729 7   
5730 9   
5731 58  
5732 1   
5733 6   
5734 7   
5735 3   
5736 1   
5737 7   
5738 3   
5739 7   
5740 8   
5741 70  
5742 8   
5743 1   
5744 5   
5745 76  
5746 2   
5747 64  
5748 10  
5749 69  
5750 3   
5751 7   
5752 8   
5753 7   
5754 3   
5755 10  
5756 8   
5757 8   
5758 8   
5759 4   
5760 6   
5761 9   
5762 3   
5763 5   
5764 3   
5765 7   
5766 2   
5767 3   
5768 97  
5769 3   
5770 2   
5771 55  
5772 10  
5773 1   
5774 7   
5775 6   
5776 10  
5777 9   
5778 5   
5779 9   
5780 3   
5781 10  
5782 55  
5783 1   
5784 3   
5785 2   
5786 5   
5787 73  
5788 3   
5789 7   
5790 9   
5791 5   
5792 6   
5793 2   
5794 79  
5795 7   
5796 1   
5797 77  
5798 68  
5799 9   
5800 65  
5801 8   
5802 7   
5803 4   
5804 3   
5805 4   
5806 6   
5807 10  
5808 1   
5809 1   
5810 10  
5811 81  
5812 4   
5813 3   
5814 10  
5815 9   
5816 7   
5817 6   
5818 2   
5819 6   
5820 1   
5821 2   
5822 7   
5823 2   
5824 1   
5825 2   
5826 5   
5827 1   
5828 7   
5829 5   
5830 9   
5831 8   
5832 10  
5833 5   
5834 10  
5835 10  
5836 10  
5837 2   
5838 3   
5839 1   
5840 1   
5841 10  
5842 4   
5843 8   
5844 1   
5845 10  
5846 7   
5847 78  
5848 5   
5849 2   
5850 1   
5851 6   
5852 4   
5853 6   
5854 86  
5855 3   
5856 2   
5857 66  
5858 59  
5859 6   
5860 6   
5861 3   
5862 10  
5863 6   
5864 4   
5865 6   
5866 1   
5867 3   
5868 8   
5869 6   
5870 51  
5871 6   
5872 8   
5873 90  
5874 6   
5875 1   
5876 7   
5877 4   
5878 8   
5879 56  
5880 1   
5881 1   
5882 4   
5883 5   
5884 3   
5885 9   
5886 6   
5887 9   
5888 10  
5889 89  
5890 9   
5891 51  
5892 6   
5893 1   
5894 8   
5895 7   
5896 1   
5897 9   
5898 8   
5899 5   
5900 4   
5901 2   
5902 7   
5903 3   
5904 2   
5905 5   
5906 4   
5907 10  
5908 86  
5909 2   
5910 3   
5911 6   
5912 6   
5913 3   
5914 8   
5915 10  
5916 6   
5917 66  
5918 82  
5919 5   
5920 5   
5921 4   
5922 7   
5923 5   
5924 1   
5925 8   
5926 8   
5927 8   
5928 1   
5929 7   
5930 73  
5931 9   
5932 8   
5933 2   
5934 5   
5935 3   
5936 3   
5937 8   
5938 2   
5939 6   
5940 3   
5941 8   
5942 77  
5943 2   
5944 9   
5945 4   
5946 6   
5947 6   
5948 2   
5949 1   
5950 8   
5951 54  
5952 9   
5953 3   
5954 5   
5955 10  
5956 5   
5957 9   
5958 61  
5959 1   
5960 9   
5961 5   
5962 3   
5963 8   
5964 10  
5965 1   
5966 10  
5967 99  
5968 9   
5969 1   
5970 8   
5971 6   
5972 6   
5973 8   
5974 2   
5975 6   
5976 65  
5977 4   
5978 8   
5979 53  
5980 5   
5981 57  
5982 3   
5983 3   
5984 59  
5985 2   
5986 10  
5987 5   
5988 7   
5989 2   
5990 8   
5991 5   
5992 87  
5993 84  
5994 3   
5995 1   
5996 9   
5997 3   
5998 9   
5999 1   
6000 94  
6001 6   
6002 5   
6003 8   
6004 4   
6005 65  
6006 10  
6007 4   
6008 4   
6009 9   
6010 5   
6011 8   
6012 89  
6013 4   
6014 7   
6015 51  
6016 1   
6017 99  
6018 10  
6019 7   
6020 8   
6021 7   
6022 2   
6023 96  
6024 1   
6025 10  
6026 5   
6027 6   
6028 1   
6029 10  
6030 10  
6031 1   
6032 5   
6033 1   
6034 1   
6035 10  
6036 6   
6037 10  
6038 10  
6039 85  
6040 1   
6041 10  
6042 6   
6043 4   
6044 4   
6045 81  
6046 84  
6047 1   
6048 50  
6049 57  
6050 3   
6051 6   
6052 6   
6053 9   
6054 100 
6055 2   
6056 57  
6057 1   
6058 7   
6059 8   
6060 1   
6061 5   
6062 5   
6063 2   
6064 6   
6065 9   
6066 2   
6067 66  
6068 5   
6069 2   
6070 95  
6071 9   
6072 92  
6073 10  
6074 6   
6075 1   
6076 7   
6077 3   
6078 4   
6079 56  
6080 3   
6081 4   
6082 5   
6083 6   
6084 3   
6085 8   
6086 7   
6087 3   
6088 2   
6089 1   
6090 3   
6091 3   
6092 4   
6093 6   
6094 2   
6095 9   
6096 98  
6097 1   
6098 2   
6099 9   
6100 95  
6101 1   
6102 1   
6103 9   
6104 6   
6105 4   
6106 4   
6107 9   
6108 3   
6109 10  
6110 9   
6111 5   
6112 8   
6113 4   
6114 81  
6115 9   
6116 8   
6117 9   
6118 4   
6119 76  
6120 4   
6121 6   
6122 3   
6123 5   
6124 1   
6125 10  
6126 2   
6127 8   
6128 2   
6129 7   
6130 2   
6131 4   
6132 10  
6133 71  
6134 9   
6135 70  
6136 8   
6137 6   
6138 7   
6139 8   
6140 8   
6141 10  
6142 9   
6143 1   
6144 1   
6145 64  
6146 6   
6147 4   
6148 10  
6149 2   
6150 6   
6151 65  
6152 1   
6153 8   
6154 4   
6155 86  
6156 2   
6157 7   
6158 73  
6159 1   
6160 5   
6161 2   
6162 7   
6163 4   
6164 6   
6165 84  
6166 9   
6167 96  
6168 9   
6169 3   
6170 100 
6171 4   
6172 3   
6173 1   
6174 3   
6175 2   
6176 2   
6177 8   
6178 10  
6179 6   
6180 9   
6181 1   
6182 1   
6183 5   
6184 3   
6185 4   
6186 10  
6187 74  
6188 8   
6189 3   
6190 10  
6191 4   
6192 6   
6193 3   
6194 1   
6195 7   
6196 2   
6197 1   
6198 2   
6199 7   
6200 63  
6201 91  
6202 9   
6203 7   
6204 3   
6205 4   
6206 8   
6207 9   
6208 9   
6209 8   
6210 2   
6211 1   
6212 7   
6213 8   
6214 1   
6215 1   
6216 6   
6217 8   
6218 1   
6219 6   
6220 9   
6221 7   
6222 61  
6223 1   
6224 6   
6225 1   
6226 2   
6227 6   
6228 91  
6229 9   
6230 5   
6231 68  
6232 1   
6233 8   
6234 2   
6235 10  
6236 5   
6237 51  
6238 1   
6239 9   
6240 4   
6241 6   
6242 4   
6243 7   
6244 7   
6245 77  
6246 10  
6247 1   
6248 2   
6249 10  
6250 7   
6251 2   
6252 1   
6253 6   
6254 3   
6255 8   
6256 8   
6257 96  
6258 95  
6259 5   
6260 8   
6261 53  
6262 8   
6263 4   
6264 9   
6265 9   
6266 1   
6267 5   
6268 5   
6269 64  
6270 3   
6271 4   
6272 10  
6273 8   
6274 10  
6275 72  
6276 74  
6277 6   
6278 8   
6279 1   
6280 1   
6281 3   
6282 55  
6283 90  
6284 5   
6285 8   
6286 5   
6287 2   
6288 1   
6289 3   
6290 3   
6291 91  
6292 2   
6293 4   
6294 3   
6295 76  
6296 4   
6297 9   
6298 95  
6299 86  
6300 9   
6301 65  
6302 100 
6303 1   
6304 71  
6305 10  
6306 94  
6307 4   
6308 5   
6309 58  
6310 87  
6311 60  
6312 6   
6313 8   
6314 6   
6315 1   
6316 3   
6317 9   
6318 7   
6319 1   
6320 61  
6321 5   
6322 61  
6323 85  
6324 2   
6325 4   
6326 9   
6327 94  
6328 1   
6329 5   
6330 2   
6331 4   
6332 8   
6333 5   
6334 1   
6335 3   
6336 8   
6337 4   
6338 83  
6339 8   
6340 10  
6341 5   
6342 4   
6343 6   
6344 5   
6345 3   
6346 1   
6347 4   
6348 10  
6349 2   
6350 2   
6351 6   
6352 10  
6353 98  
6354 81  
6355 9   
6356 8   
6357 10  
6358 9   
6359 5   
6360 5   
6361 4   
6362 6   
6363 6   
6364 8   
6365 7   
6366 9   
6367 5   
6368 9   
6369 6   
6370 4   
6371 9   
6372 62  
6373 3   
6374 7   
6375 1   
6376 80  
6377 5   
6378 9   
6379 64  
6380 3   
6381 1   
6382 4   
6383 2   
6384 57  
6385 1   
6386 7   
6387 4   
6388 7   
6389 7   
6390 3   
6391 5   
6392 95  
6393 9   
6394 7   
6395 68  
6396 3   
6397 1   
6398 5   
6399 73  
6400 10  
6401 97  
6402 69  
6403 5   
6404 9   
6405 4   
6406 5   
6407 76  
6408 2   
6409 6   
6410 9   
6411 1   
6412 7   
6413 9   
6414 8   
6415 10  
6416 66  
6417 96  
6418 57  
6419 5   
6420 10  
6421 10  
6422 8   
6423 2   
6424 10  
6425 10  
6426 73  
6427 5   
6428 9   
6429 6   
6430 4   
6431 1   
6432 3   
6433 58  
6434 3   
6435 1   
6436 9   
6437 7   
6438 4   
6439 4   
6440 5   
6441 79  
6442 7   
6443 3   
6444 4   
6445 5   
6446 5   
6447 62  
6448 2   
6449 5   
6450 9   
6451 4   
6452 85  
6453 10  
6454 5   
6455 6   
6456 6   
6457 55  
6458 5   
6459 8   
6460 6   
6461 5   
6462 5   
6463 6   
6464 3   
6465 4   
6466 98  
6467 8   
6468 10  
6469 70  
6470 54  
6471 1   
6472 4   
6473 3   
6474 96  
6475 1   
6476 6   
6477 55  
6478 6   
6479 4   
6480 6   
6481 5   
6482 8   
6483 2   
6484 3   
6485 2   
6486 8   
6487 3   
6488 64  
6489 99  
6490 5   
6491 10  
6492 4   
6493 2   
6494 7   
6495 6   
6496 6   
6497 2   
6498 3   
6499 100 
6500 8   
6501 7   
6502 3   
6503 2   
6504 3   
6505 6   
6506 4   
6507 1   
6508 7   
6509 67  
6510 7   
6511 6   
6512 4   
6513 3   
6514 2   
6515 9   
6516 10  
6517 3   
6518 3   
6519 4   
6520 4   
6521 10  
6522 63  
6523 1   
6524 1   
6525 3   
6526 3   
6527 63  
6528 3   
6529 5   
6530 3   
6531 1   
6532 3   
6533 61  
6534 7   
6535 10  
6536 5   
6537 64  
6538 5   
6539 8   
6540 7   
6541 8   
6542 10  
6543 2   
6544 2   
6545 5   
6546 1   
6547 6   
6548 5   
6549 5   
6550 4   
6551 63  
6552 7   
6553 97  
6554 98  
6555 5   
6556 55  
6557 50  
6558 55  
6559 8   
6560 7   
6561 2   
6562 61  
6563 10  
6564 9   
6565 7   
6566 80  
6567 7   
6568 7   
6569 5   
6570 3   
6571 5   
6572 10  
6573 4   
6574 5   
6575 6   
6576 1   
6577 10  
6578 4   
6579 82  
6580 6   
6581 9   
6582 92  
6583 96  
6584 1   
6585 7   
6586 10  
6587 7   
6588 8   
6589 5   
6590 5   
6591 94  
6592 2   
6593 50  
6594 3   
6595 2   
6596 4   
6597 8   
6598 1   
6599 4   
6600 10  
6601 68  
6602 5   
6603 4   
6604 4   
6605 3   
6606 98  
6607 3   
6608 3   
6609 4   
6610 97  
6611 10  
6612 77  
6613 9   
6614 1   
6615 3   
6616 53  
6617 10  
6618 98  
6619 10  
6620 6   
6621 3   
6622 2   
6623 3   
6624 3   
6625 5   
6626 99  
6627 10  
6628 4   
6629 8   
6630 7   
6631 7   
6632 2   
6633 73  
6634 74  
6635 7   
6636 8   
6637 4   
6638 9   
6639 2   
6640 8   
6641 2   
6642 8   
6643 6   
6644 90  
6645 9   
6646 3   
6647 6   
6648 8   
6649 5   
6650 9   
6651 3   
6652 7   
6653 2   
6654 7   
6655 2   
6656 54  
6657 8   
6658 9   
6659 10  
6660 5   
6661 98  
6662 4   
6663 10  
6664 3   
6665 9   
6666 7   
6667 5   
6668 4   
6669 3   
6670 3   
6671 7   
6672 8   
6673 5   
6674 62  
6675 1   
6676 7   
6677 8   
6678 8   
6679 6   
6680 2   
6681 70  
6682 2   
6683 8   
6684 2   
6685 5   
6686 10  
6687 6   
6688 73  
6689 9   
6690 10  
6691 63  
6692 4   
6693 3   
6694 67  
6695 1   
6696 70  
6697 2   
6698 5   
6699 5   
6700 1   
6701 10  
6702 5   
6703 8   
6704 6   
6705 8   
6706 1   
6707 4   
6708 10  
6709 65  
6710 7   
6711 91  
6712 5   
6713 60  
6714 2   
6715 9   
6716 8   
6717 4   
6718 73  
6719 10  
6720 59  
6721 9   
6722 8   
6723 7   
6724 9   
6725 7   
6726 75  
6727 5   
6728 2   
6729 3   
6730 4   
6731 6   
6732 9   
6733 7   
6734 6   
6735 90  
6736 5   
6737 5   
6738 2   
6739 8   
6740 10  
6741 75  
6742 9   
6743 99  
6744 6   
6745 3   
6746 1   
6747 10  
6748 10  
6749 5   
6750 5   
6751 4   
6752 4   
6753 1   
6754 1   
6755 5   
6756 4   
6757 8   
6758 6   
6759 8   
6760 4   
6761 65  
6762 10  
6763 8   
6764 8   
6765 3   
6766 6   
6767 85  
6768 95  
6769 9   
6770 72  
6771 69  
6772 8   
6773 69  
6774 5   
6775 1   
6776 4   
6777 89  
6778 7   
6779 7   
6780 2   
6781 3   
6782 1   
6783 6   
6784 10  
6785 3   
6786 10  
6787 96  
6788 9   
6789 53  
6790 2   
6791 10  
6792 63  
6793 9   
6794 9   
6795 2   
6796 1   
6797 3   
6798 8   
6799 9   
6800 10  
6801 57  
6802 10  
6803 1   
6804 10  
6805 70  
6806 7   
6807 3   
6808 91  
6809 8   
6810 8   
6811 5   
6812 9   
6813 10  
6814 66  
6815 95  
6816 65  
6817 10  
6818 61  
6819 2   
6820 5   
6821 4   
6822 10  
6823 8   
6824 4   
6825 1   
6826 6   
6827 1   
6828 6   
6829 81  
6830 8   
6831 90  
6832 10  
6833 66  
6834 97  
6835 95  
6836 51  
6837 4   
6838 8   
6839 61  
6840 1   
6841 83  
6842 6   
6843 9   
6844 8   
6845 6   
6846 8   
6847 7   
6848 3   
6849 6   
6850 85  
6851 9   
6852 3   
6853 7   
6854 7   
6855 3   
6856 9   
6857 7   
6858 10  
6859 5   
6860 2   
6861 3   
6862 2   
6863 6   
6864 10  
6865 4   
6866 88  
6867 9   
6868 8   
6869 5   
6870 3   
6871 9   
6872 8   
6873 5   
6874 10  
6875 6   
6876 7   
6877 6   
6878 4   
6879 67  
6880 9   
6881 77  
6882 67  
6883 3   
6884 54  
6885 4   
6886 1   
6887 8   
6888 7   
6889 5   
6890 5   
6891 60  
6892 5   
6893 9   
6894 7   
6895 4   
6896 67  
6897 10  
6898 10  
6899 9   
6900 3   
6901 6   
6902 66  
6903 8   
6904 10  
6905 3   
6906 9   
6907 54  
6908 5   
6909 86  
6910 9   
6911 9   
6912 5   
6913 1   
6914 8   
6915 1   
6916 1   
6917 9   
6918 10  
6919 3   
6920 1   
6921 5   
6922 1   
6923 5   
6924 61  
6925 6   
6926 100 
6927 7   
6928 3   
6929 8   
6930 2   
6931 4   
6932 1   
6933 5   
6934 3   
6935 7   
6936 4   
6937 10  
6938 69  
6939 10  
6940 6   
6941 3   
6942 63  
6943 95  
6944 83  
6945 1   
6946 4   
6947 9   
6948 8   
6949 7   
6950 8   
6951 7   
6952 69  
6953 1   
6954 85  
6955 4   
6956 63  
6957 7   
6958 4   
6959 91  
6960 7   
6961 4   
6962 8   
6963 8   
6964 4   
6965 4   
6966 9   
6967 10  
6968 8   
6969 100 
6970 1   
6971 4   
6972 3   
6973 68  
6974 8   
6975 4   
6976 58  
6977 10  
6978 2   
6979 1   
6980 9   
6981 10  
6982 1   
6983 6   
6984 7   
6985 10  
6986 9   
6987 6   
6988 92  
6989 6   
6990 1   
6991 2   
6992 8   
6993 59  
6994 10  
6995 5   
6996 10  
6997 5   
6998 67  
6999 9   
7000 3   
7001 8   
7002 3   
7003 6   
7004 8   
7005 6   
7006 58  
7007 86  
7008 6   
7009 2   
7010 6   
7011 5   
7012 3   
7013 9   
7014 4   
7015 66  
7016 5   
7017 4   
7018 9   
7019 1   
7020 1   
7021 8   
7022 2   
7023 7   
7024 1   
7025 75  
7026 4   
7027 9   
7028 3   
7029 58  
7030 10  
7031 8   
7032 4   
7033 5   
7034 8   
7035 5   
7036 3   
7037 2   
7038 4   
7039 80  
7040 1   
7041 5   
7042 8   
7043 54  
7044 6   
7045 10  
7046 2   
7047 54  
7048 3   
7049 7   
7050 4   
7051 6   
7052 6   
7053 2   
7054 93  
7055 9   
7056 2   
7057 1   
7058 7   
7059 1   
7060 92  
7061 2   
7062 60  
7063 5   
7064 84  
7065 5   
7066 10  
7067 3   
7068 10  
7069 9   
7070 51  
7071 5   
7072 8   
7073 9   
7074 8   
7075 1   
7076 7   
7077 6   
7078 6   
7079 9   
7080 4   
7081 1   
7082 4   
7083 8   
7084 10  
7085 5   
7086 63  
7087 6   
7088 8   
7089 3   
7090 10  
7091 5   
7092 5   
7093 10  
7094 1   
7095 4   
7096 9   
7097 5   
7098 94  
7099 10  
7100 5   
7101 5   
7102 3   
7103 96  
7104 9   
7105 6   
7106 4   
7107 9   
7108 5   
7109 6   
7110 3   
7111 8   
7112 2   
7113 2   
7114 10  
7115 70  
7116 7   
7117 3   
7118 6   
7119 2   
7120 3   
7121 62  
7122 4   
7123 10  
7124 2   
7125 5   
7126 10  
7127 10  
7128 100 
7129 59  
7130 10  
7131 9   
7132 4   
7133 3   
7134 50  
7135 5   
7136 8   
7137 2   
7138 84  
7139 98  
7140 2   
7141 2   
7142 73  
7143 7   
7144 9   
7145 4   
7146 5   
7147 4   
7148 5   
7149 9   
7150 2   
7151 9   
7152 8   
7153 10  
7154 10  
7155 9   
7156 5   
7157 71  
7158 10  
7159 9   
7160 9   
7161 83  
7162 9   
7163 6   
7164 5   
7165 9   
7166 98  
7167 2   
7168 3   
7169 5   
7170 7   
7171 2   
7172 1   
7173 1   
7174 10  
7175 5   
7176 8   
7177 1   
7178 8   
7179 6   
7180 9   
7181 2   
7182 6   
7183 8   
7184 9   
7185 6   
7186 91  
7187 77  
7188 10  
7189 9   
7190 3   
7191 10  
7192 3   
7193 3   
7194 9   
7195 8   
7196 4   
7197 10  
7198 50  
7199 6   
7200 9   
7201 1   
7202 5   
7203 7   
7204 4   
7205 1   
7206 1   
7207 10  
7208 97  
7209 10  
7210 63  
7211 4   
7212 10  
7213 88  
7214 92  
7215 2   
7216 5   
7217 1   
7218 9   
7219 1   
7220 7   
7221 96  
7222 88  
7223 3   
7224 6   
7225 8   
7226 1   
7227 2   
7228 5   
7229 8   
7230 10  
7231 7   
7232 4   
7233 6   
7234 10  
7235 5   
7236 8   
7237 65  
7238 7   
7239 3   
7240 1   
7241 53  
7242 1   
7243 8   
7244 96  
7245 1   
7246 2   
7247 4   
7248 7   
7249 100 
7250 87  
7251 10  
7252 3   
7253 9   
7254 6   
7255 3   
7256 4   
7257 4   
7258 10  
7259 6   
7260 2   
7261 3   
7262 3   
7263 60  
7264 6   
7265 2   
7266 7   
7267 4   
7268 88  
7269 9   
7270 2   
7271 10  
7272 7   
7273 9   
7274 9   
7275 6   
7276 7   
7277 8   
7278 8   
7279 1   
7280 5   
7281 8   
7282 4   
7283 4   
7284 8   
7285 8   
7286 97  
7287 2   
7288 5   
7289 6   
7290 3   
7291 10  
7292 5   
7293 1   
7294 7   
7295 9   
7296 76  
7297 1   
7298 9   
7299 10  
7300 87  
7301 4   
7302 9   
7303 3   
7304 10  
7305 2   
7306 10  
7307 99  
7308 5   
7309 2   
7310 6   
7311 7   
7312 56  
7313 6   
7314 7   
7315 7   
7316 8   
7317 5   
7318 8   
7319 7   
7320 71  
7321 8   
7322 6   
7323 4   
7324 3   
7325 1   
7326 6   
7327 98  
7328 4   
7329 8   
7330 9   
7331 1   
7332 76  
7333 5   
7334 2   
7335 5   
7336 10  
7337 54  
7338 86  
7339 6   
7340 1   
7341 6   
7342 6   
7343 6   
7344 9   
7345 1   
7346 54  
7347 5   
7348 3   
7349 6   
7350 2   
7351 7   
7352 2   
7353 5   
7354 3   
7355 6   
7356 6   
7357 5   
7358 3   
7359 80  
7360 8   
7361 6   
7362 4   
7363 55  
7364 1   
7365 77  
7366 7   
7367 88  
7368 4   
7369 100 
7370 3   
7371 70  
7372 6   
7373 60  
7374 1   
7375 4   
7376 94  
7377 2   
7378 8   
7379 77  
7380 5   
7381 78  
7382 6   
7383 7   
7384 85  
7385 6   
7386 2   
7387 71  
7388 5   
7389 8   
7390 8   
7391 10  
7392 6   
7393 6   
7394 1   
7395 86  
7396 10  
7397 7   
7398 2   
7399 3   
7400 5   
7401 5   
7402 55  
7403 8   
7404 8   
7405 2   
7406 10  
7407 2   
7408 9   
7409 8   
7410 5   
7411 5   
7412 3   
7413 9   
7414 7   
7415 6   
7416 2   
7417 6   
7418 1   
7419 3   
7420 3   
7421 10  
7422 2   
7423 57  
7424 58  
7425 73  
7426 100 
7427 62  
7428 4   
7429 76  
7430 5   
7431 85  
7432 8   
7433 10  
7434 91  
7435 1   
7436 1   
7437 2   
7438 1   
7439 2   
7440 10  
7441 5   
7442 6   
7443 8   
7444 4   
7445 6   
7446 4   
7447 97  
7448 8   
7449 1   
7450 6   
7451 5   
7452 70  
7453 10  
7454 7   
7455 7   
7456 56  
7457 55  
7458 8   
7459 1   
7460 7   
7461 4   
7462 9   
7463 4   
7464 1   
7465 10  
7466 1   
7467 4   
7468 3   
7469 7   
7470 6   
7471 99  
7472 7   
7473 6   
7474 6   
7475 7   
7476 9   
7477 3   
7478 7   
7479 4   
7480 10  
7481 73  
7482 5   
7483 8   
7484 8   
7485 10  
7486 9   
7487 2   
7488 5   
7489 5   
7490 10  
7491 8   
7492 6   
7493 4   
7494 9   
7495 5   
7496 10  
7497 10  
7498 10  
7499 3   
7500 5   
7501 6   
7502 7   
7503 5   
7504 9   
7505 5   
7506 4   
7507 10  
7508 3   
7509 9   
7510 6   
7511 3   
7512 10  
7513 9   
7514 1   
7515 2   
7516 93  
7517 6   
7518 10  
7519 8   
7520 2   
7521 6   
7522 4   
7523 70  
7524 73  
7525 9   
7526 5   
7527 1   
7528 4   
7529 8   
7530 4   
7531 10  
7532 73  
7533 7   
7534 10  
7535 5   
7536 8   
7537 2   
7538 5   
7539 9   
7540 9   
7541 3   
7542 4   
7543 2   
7544 5   
7545 85  
7546 97  
7547 1   
7548 4   
7549 80  
7550 8   
7551 1   
7552 10  
7553 3   
7554 8   
7555 5   
7556 8   
7557 9   
7558 95  
7559 4   
7560 5   
7561 7   
7562 6   
7563 82  
7564 9   
7565 7   
7566 8   
7567 9   
7568 5   
7569 59  
7570 8   
7571 9   
7572 52  
7573 73  
7574 2   
7575 60  
7576 10  
7577 83  
7578 5   
7579 54  
7580 7   
7581 1   
7582 7   
7583 2   
7584 7   
7585 81  
7586 9   
7587 1   
7588 56  
7589 71  
7590 10  
7591 64  
7592 55  
7593 2   
7594 74  
7595 8   
7596 5   
7597 1   
7598 6   
7599 7   
7600 4   
7601 4   
7602 2   
7603 10  
7604 70  
7605 6   
7606 4   
7607 8   
7608 8   
7609 9   
7610 4   
7611 3   
7612 50  
7613 5   
7614 4   
7615 10  
7616 5   
7617 8   
7618 3   
7619 10  
7620 51  
7621 55  
7622 1   
7623 10  
7624 10  
7625 9   
7626 8   
7627 79  
7628 10  
7629 69  
7630 53  
7631 87  
7632 66  
7633 5   
7634 5   
7635 8   
7636 6   
7637 8   
7638 5   
7639 9   
7640 1   
7641 10  
7642 4   
7643 7   
7644 2   
7645 81  
7646 7   
7647 9   
7648 85  
7649 9   
7650 9   
7651 10  
7652 84  
7653 8   
7654 75  
7655 5   
7656 8   
7657 8   
7658 9   
7659 9   
7660 10  
7661 7   
7662 4   
7663 8   
7664 3   
7665 7   
7666 3   
7667 6   
7668 66  
7669 9   
7670 4   
7671 8   
7672 55  
7673 5   
7674 7   
7675 9   
7676 1   
7677 2   
7678 70  
7679 6   
7680 65  
7681 3   
7682 91  
7683 80  
7684 1   
7685 5   
7686 10  
7687 3   
7688 3   
7689 56  
7690 4   
7691 1   
7692 2   
7693 1   
7694 9   
7695 62  
7696 71  
7697 5   
7698 3   
7699 6   
7700 7   
7701 9   
7702 9   
7703 8   
7704 2   
7705 3   
7706 50  
7707 6   
7708 54  
7709 4   
7710 7   
7711 93  
7712 7   
7713 7   
7714 82  
7715 6   
7716 7   
7717 5   
7718 9   
7719 92  
7720 2   
7721 9   
7722 1   
7723 67  
7724 4   
7725 2   
7726 6   
7727 4   
7728 4   
7729 1   
7730 2   
7731 51  
7732 4   
7733 2   
7734 2   
7735 9   
7736 4   
7737 6   
7738 2   
7739 2   
7740 71  
7741 4   
7742 2   
7743 77  
7744 77  
7745 8   
7746 7   
7747 9   
7748 1   
7749 3   
7750 95  
7751 74  
7752 61  
7753 7   
7754 2   
7755 9   
7756 5   
7757 54  
7758 6   
7759 9   
7760 9   
7761 3   
7762 7   
7763 68  
7764 73  
7765 3   
7766 78  
7767 8   
7768 10  
7769 1   
7770 1   
7771 71  
7772 5   
7773 2   
7774 2   
7775 6   
7776 4   
7777 84  
7778 10  
7779 9   
7780 10  
7781 9   
7782 1   
7783 8   
7784 59  
7785 85  
7786 5   
7787 4   
7788 5   
7789 5   
7790 5   
7791 8   
7792 2   
7793 9   
7794 5   
7795 5   
7796 89  
7797 1   
7798 4   
7799 4   
7800 79  
7801 3   
7802 9   
7803 1   
7804 2   
7805 9   
7806 2   
7807 8   
7808 3   
7809 6   
7810 63  
7811 8   
7812 8   
7813 2   
7814 1   
7815 4   
7816 8   
7817 3   
7818 1   
7819 4   
7820 4   
7821 10  
7822 4   
7823 4   
7824 84  
7825 10  
7826 3   
7827 9   
7828 100 
7829 6   
7830 3   
7831 7   
7832 4   
7833 4   
7834 53  
7835 7   
7836 3   
7837 10  
7838 8   
7839 10  
7840 5   
7841 5   
7842 9   
7843 4   
7844 6   
7845 1   
7846 82  
7847 8   
7848 9   
7849 1   
7850 10  
7851 2   
7852 2   
7853 99  
7854 1   
7855 9   
7856 74  
7857 1   
7858 7   
7859 64  
7860 1   
7861 1   
7862 8   
7863 6   
7864 88  
7865 54  
7866 72  
7867 5   
7868 10  
7869 10  
7870 8   
7871 51  
7872 4   
7873 2   
7874 3   
7875 9   
7876 1   
7877 2   
7878 1   
7879 1   
7880 88  
7881 1   
7882 8   
7883 3   
7884 81  
7885 4   
7886 4   
7887 57  
7888 1   
7889 7   
7890 75  
7891 10  
7892 9   
7893 4   
7894 8   
7895 6   
7896 9   
7897 1   
7898 100 
7899 4   
7900 9   
7901 57  
7902 8   
7903 2   
7904 72  
7905 4   
7906 9   
7907 7   
7908 10  
7909 8   
7910 8   
7911 2   
7912 99  
7913 3   
7914 8   
7915 7   
7916 10  
7917 10  
7918 8   
7919 10  
7920 6   
7921 7   
7922 3   
7923 2   
7924 4   
7925 10  
7926 6   
7927 4   
7928 3   
7929 6   
7930 67  
7931 9   
7932 91  
7933 10  
7934 10  
7935 6   
7936 3   
7937 10  
7938 2   
7939 7   
7940 55  
7941 10  
7942 8   
7943 9   
7944 2   
7945 9   
7946 4   
7947 3   
7948 52  
7949 1   
7950 74  
7951 10  
7952 1   
7953 4   
7954 7   
7955 4   
7956 9   
7957 87  
7958 6   
7959 9   
7960 4   
7961 10  
7962 7   
7963 3   
7964 2   
7965 5   
7966 9   
7967 1   
7968 9   
7969 2   
7970 8   
7971 6   
7972 1   
7973 6   
7974 3   
7975 3   
7976 2   
7977 76  
7978 71  
7979 10  
7980 100 
7981 1   
7982 92  
7983 3   
7984 9   
7985 6   
7986 6   
7987 74  
7988 7   
7989 67  
7990 9   
7991 9   
7992 8   
7993 9   
7994 8   
7995 9   
7996 6   
7997 6   
7998 89  
7999 7   
8000 9   
8001 8   
8002 2   
8003 53  
8004 68  
8005 1   
8006 2   
8007 1   
8008 9   
8009 4   
8010 6   
8011 10  
8012 3   
8013 9   
8014 7   
8015 6   
8016 76  
8017 9   
8018 2   
8019 5   
8020 7   
8021 98  
8022 5   
8023 3   
8024 4   
8025 81  
8026 4   
8027 10  
8028 10  
8029 84  
8030 1   
8031 8   
8032 3   
8033 7   
8034 82  
8035 8   
8036 94  
8037 10  
8038 10  
8039 2   
8040 56  
8041 5   
8042 3   
8043 3   
8044 3   
8045 3   
8046 6   
8047 3   
8048 8   
8049 2   
8050 3   
8051 9   
8052 98  
8053 89  
8054 97  
8055 10  
8056 1   
8057 3   
8058 74  
8059 4   
8060 97  
8061 77  
8062 3   
8063 68  
8064 5   
8065 3   
8066 6   
8067 1   
8068 86  
8069 7   
8070 1   
8071 3   
8072 54  
8073 6   
8074 7   
8075 2   
8076 6   
8077 8   
8078 9   
8079 10  
8080 80  
8081 2   
8082 2   
8083 2   
8084 98  
8085 2   
8086 1   
8087 5   
8088 1   
8089 2   
8090 2   
8091 8   
8092 3   
8093 89  
8094 4   
8095 3   
8096 3   
8097 2   
8098 1   
8099 3   
8100 3   
8101 7   
8102 9   
8103 96  
8104 84  
8105 5   
8106 4   
8107 6   
8108 10  
8109 4   
8110 2   
8111 7   
8112 10  
8113 9   
8114 8   
8115 6   
8116 6   
8117 3   
8118 2   
8119 8   
8120 83  
8121 51  
8122 100 
8123 5   
8124 7   
8125 1   
8126 50  
8127 55  
8128 6   
8129 79  
8130 86  
8131 3   
8132 6   
8133 89  
8134 10  
8135 59  
8136 2   
8137 4   
8138 10  
8139 2   
8140 66  
8141 75  
8142 3   
8143 8   
8144 3   
8145 54  
8146 1   
8147 3   
8148 2   
8149 9   
8150 8   
8151 3   
8152 5   
8153 2   
8154 4   
8155 5   
8156 51  
8157 4   
8158 62  
8159 1   
8160 1   
8161 6   
8162 1   
8163 7   
8164 6   
8165 1   
8166 58  
8167 85  
8168 10  
8169 82  
8170 10  
8171 6   
8172 10  
8173 3   
8174 9   
8175 5   
8176 9   
8177 10  
8178 1   
8179 10  
8180 6   
8181 9   
8182 73  
8183 5   
8184 7   
8185 9   
8186 5   
8187 90  
8188 6   
8189 10  
8190 8   
8191 6   
8192 5   
8193 4   
8194 6   
8195 5   
8196 7   
8197 6   
8198 7   
8199 89  
8200 5   
8201 7   
8202 9   
8203 10  
8204 4   
8205 77  
8206 71  
8207 10  
8208 52  
8209 76  
8210 98  
8211 98  
8212 4   
8213 10  
8214 99  
8215 2   
8216 3   
8217 4   
8218 10  
8219 7   
8220 65  
8221 3   
8222 9   
8223 6   
8224 4   
8225 8   
8226 1   
8227 2   
8228 68  
8229 3   
8230 3   
8231 2   
8232 10  
8233 2   
8234 4   
8235 5   
8236 93  
8237 10  
8238 2   
8239 80  
8240 4   
8241 50  
8242 7   
8243 10  
8244 10  
8245 3   
8246 5   
8247 4   
8248 4   
8249 6   
8250 3   
8251 7   
8252 7   
8253 2   
8254 3   
8255 4   
8256 10  
8257 2   
8258 3   
8259 9   
8260 6   
8261 8   
8262 84  
8263 7   
8264 9   
8265 8   
8266 2   
8267 2   
8268 7   
8269 4   
8270 8   
8271 4   
8272 1   
8273 3   
8274 5   
8275 65  
8276 9   
8277 10  
8278 3   
8279 1   
8280 99  
8281 1   
8282 6   
8283 3   
8284 62  
8285 65  
8286 70  
8287 1   
8288 8   
8289 7   
8290 5   
8291 8   
8292 7   
8293 5   
8294 8   
8295 5   
8296 6   
8297 1   
8298 8   
8299 9   
8300 2   
8301 8   
8302 3   
8303 8   
8304 6   
8305 7   
8306 71  
8307 3   
8308 55  
8309 9   
8310 88  
8311 9   
8312 1   
8313 5   
8314 10  
8315 4   
8316 3   
8317 3   
8318 6   
8319 76  
8320 64  
8321 4   
8322 10  
8323 76  
8324 5   
8325 93  
8326 1   
8327 6   
8328 100 
8329 1   
8330 1   
8331 9   
8332 1   
8333 1   
8334 7   
8335 58  
8336 8   
8337 87  
8338 3   
8339 8   
8340 2   
8341 5   
8342 4   
8343 53  
8344 4   
8345 4   
8346 61  
8347 7   
8348 7   
8349 9   
8350 8   
8351 5   
8352 63  
8353 1   
8354 4   
8355 5   
8356 9   
8357 4   
8358 1   
8359 93  
8360 3   
8361 8   
8362 60  
8363 3   
8364 7   
8365 4   
8366 10  
8367 7   
8368 83  
8369 55  
8370 9   
8371 9   
8372 3   
8373 3   
8374 68  
8375 1   
8376 10  
8377 8   
8378 7   
8379 9   
8380 10  
8381 4   
8382 7   
8383 3   
8384 1   
8385 2   
8386 66  
8387 51  
8388 8   
8389 6   
8390 10  
8391 7   
8392 98  
8393 2   
8394 8   
8395 4   
8396 3   
8397 1   
8398 91  
8399 1   
8400 2   
8401 63  
8402 3   
8403 9   
8404 4   
8405 1   
8406 3   
8407 4   
8408 6   
8409 8   
8410 10  
8411 1   
8412 4   
8413 5   
8414 10  
8415 3   
8416 5   
8417 5   
8418 7   
8419 2   
8420 9   
8421 6   
8422 10  
8423 7   
8424 54  
8425 8   
8426 5   
8427 74  
8428 2   
8429 78  
8430 91  
8431 2   
8432 3   
8433 2   
8434 3   
8435 5   
8436 7   
8437 9   
8438 95  
8439 3   
8440 8   
8441 3   
8442 10  
8443 2   
8444 5   
8445 3   
8446 3   
8447 85  
8448 7   
8449 94  
8450 66  
8451 9   
8452 75  
8453 10  
8454 90  
8455 5   
8456 6   
8457 4   
8458 5   
8459 4   
8460 10  
8461 8   
8462 9   
8463 1   
8464 4   
8465 59  
8466 10  
8467 6   
8468 99  
8469 6   
8470 3   
8471 5   
8472 2   
8473 6   
8474 2   
8475 9   
8476 3   
8477 76  
8478 60  
8479 10  
8480 3   
8481 9   
8482 1   
8483 9   
8484 1   
8485 3   
8486 6   
8487 7   
8488 85  
8489 10  
8490 6   
8491 6   
8492 51  
8493 10  
8494 9   
8495 1   
8496 3   
8497 2   
8498 1   
8499 6   
8500 1   
8501 7   
8502 55  
8503 1   
8504 8   
8505 5   
8506 4   
8507 3   
8508 73  
8509 10  
8510 87  
8511 1   
8512 1   
8513 7   
8514 84  
8515 3   
8516 10  
8517 5   
8518 7   
8519 1   
8520 2   
8521 10  
8522 5   
8523 9   
8524 6   
8525 61  
8526 7   
8527 7   
8528 8   
8529 88  
8530 6   
8531 4   
8532 88  
8533 8   
8534 9   
8535 6   
8536 10  
8537 8   
8538 7   
8539 2   
8540 100 
8541 6   
8542 84  
8543 3   
8544 58  
8545 2   
8546 4   
8547 10  
8548 53  
8549 3   
8550 67  
8551 8   
8552 2   
8553 10  
8554 7   
8555 71  
8556 8   
8557 10  
8558 10  
8559 6   
8560 6   
8561 9   
8562 1   
8563 7   
8564 8   
8565 10  
8566 9   
8567 8   
8568 6   
8569 1   
8570 7   
8571 78  
8572 2   
8573 82  
8574 87  
8575 10  
8576 5   
8577 4   
8578 9   
8579 3   
8580 10  
8581 62  
8582 1   
8583 6   
8584 9   
8585 71  
8586 2   
8587 5   
8588 6   
8589 72  
8590 2   
8591 4   
8592 7   
8593 3   
8594 3   
8595 9   
8596 3   
8597 8   
8598 7   
8599 1   
8600 5   
8601 6   
8602 62  
8603 8   
8604 51  
8605 3   
8606 1   
8607 10  
8608 5   
8609 5   
8610 4   
8611 1   
8612 7   
8613 3   
8614 6   
8615 7   
8616 6   
8617 1   
8618 95  
8619 6   
8620 9   
8621 8   
8622 74  
8623 4   
8624 2   
8625 56  
8626 7   
8627 3   
8628 7   
8629 88  
8630 8   
8631 4   
8632 10  
8633 6   
8634 6   
8635 4   
8636 9   
8637 6   
8638 6   
8639 4   
8640 8   
8641 8   
8642 60  
8643 4   
8644 7   
8645 8   
8646 8   
8647 3   
8648 1   
8649 6   
8650 6   
8651 4   
8652 7   
8653 1   
8654 4   
8655 7   
8656 98  
8657 8   
8658 5   
8659 3   
8660 2   
8661 2   
8662 3   
8663 4   
8664 9   
8665 3   
8666 4   
8667 2   
8668 2   
8669 2   
8670 8   
8671 4   
8672 81  
8673 9   
8674 85  
8675 5   
8676 4   
8677 2   
8678 8   
8679 5   
8680 8   
8681 8   
8682 6   
8683 7   
8684 10  
8685 5   
8686 76  
8687 6   
8688 8   
8689 3   
8690 2   
8691 4   
8692 3   
8693 2   
8694 64  
8695 4   
8696 9   
8697 87  
8698 5   
8699 65  
8700 7   
8701 3   
8702 4   
8703 7   
8704 54  
8705 10  
8706 8   
8707 8   
8708 9   
8709 50  
8710 3   
8711 7   
8712 6   
8713 6   
8714 58  
8715 3   
8716 7   
8717 3   
8718 9   
8719 2   
8720 3   
8721 2   
8722 3   
8723 9   
8724 2   
8725 4   
8726 4   
8727 2   
8728 2   
8729 1   
8730 3   
8731 7   
8732 53  
8733 9   
8734 9   
8735 67  
8736 80  
8737 8   
8738 5   
8739 8   
8740 3   
8741 9   
8742 9   
8743 78  
8744 10  
8745 99  
8746 2   
8747 88  
8748 10  
8749 10  
8750 5   
8751 4   
8752 2   
8753 88  
8754 10  
8755 1   
8756 55  
8757 3   
8758 3   
8759 2   
8760 2   
8761 8   
8762 54  
8763 6   
8764 9   
8765 3   
8766 7   
8767 6   
8768 50  
8769 5   
8770 1   
8771 8   
8772 81  
8773 8   
8774 6   
8775 9   
8776 10  
8777 10  
8778 70  
8779 6   
8780 9   
8781 5   
8782 5   
8783 7   
8784 9   
8785 8   
8786 9   
8787 10  
8788 5   
8789 4   
8790 5   
8791 99  
8792 7   
8793 8   
8794 2   
8795 10  
8796 8   
8797 8   
8798 10  
8799 9   
8800 7   
8801 7   
8802 76  
8803 10  
8804 7   
8805 8   
8806 10  
8807 80  
8808 5   
8809 1   
8810 9   
8811 1   
8812 6   
8813 9   
8814 2   
8815 10  
8816 5   
8817 1   
8818 3   
8819 8   
8820 10  
8821 6   
8822 80  
8823 1   
8824 8   
8825 5   
8826 9   
8827 7   
8828 5   
8829 3   
8830 10  
8831 4   
8832 3   
8833 2   
8834 10  
8835 7   
8836 4   
8837 10  
8838 79  
8839 2   
8840 9   
8841 1   
8842 91  
8843 9   
8844 6   
8845 10  
8846 1   
8847 6   
8848 4   
8849 2   
8850 3   
8851 91  
8852 1   
8853 6   
8854 6   
8855 9   
8856 5   
8857 3   
8858 66  
8859 6   
8860 54  
8861 55  
8862 4   
8863 4   
8864 4   
8865 10  
8866 4   
8867 3   
8868 4   
8869 4   
8870 8   
8871 5   
8872 9   
8873 9   
8874 3   
8875 9   
8876 85  
8877 6   
8878 7   
8879 5   
8880 1   
8881 4   
8882 99  
8883 4   
8884 2   
8885 87  
8886 10  
8887 4   
8888 56  
8889 9   
8890 5   
8891 7   
8892 3   
8893 4   
8894 6   
8895 4   
8896 2   
8897 2   
8898 67  
8899 8   
8900 6   
8901 7   
8902 7   
8903 7   
8904 77  
8905 10  
8906 6   
8907 2   
8908 4   
8909 3   
8910 4   
8911 5   
8912 5   
8913 5   
8914 5   
8915 6   
8916 4   
8917 8   
8918 5   
8919 8   
8920 2   
8921 5   
8922 65  
8923 65  
8924 4   
8925 2   
8926 4   
8927 52  
8928 5   
8929 10  
8930 3   
8931 4   
8932 8   
8933 5   
8934 3   
8935 8   
8936 8   
8937 3   
8938 3   
8939 6   
8940 64  
8941 9   
8942 61  
8943 9   
8944 6   
8945 4   
8946 73  
8947 6   
8948 81  
8949 3   
8950 2   
8951 2   
8952 4   
8953 63  
8954 82  
8955 6   
8956 90  
8957 2   
8958 5   
8959 7   
8960 4   
8961 10  
8962 9   
8963 10  
8964 3   
8965 2   
8966 1   
8967 3   
8968 1   
8969 1   
8970 5   
8971 3   
8972 9   
8973 9   
8974 2   
8975 3   
8976 3   
8977 81  
8978 9   
8979 8   
8980 2   
8981 62  
8982 8   
8983 5   
8984 85  
8985 5   
8986 10  
8987 1   
8988 6   
8989 8   
8990 8   
8991 5   
8992 7   
8993 10  
8994 1   
8995 9   
8996 9   
8997 1   
8998 9   
8999 3   
9000 5   
9001 6   
9002 9   
9003 7   
9004 5   
9005 7   
9006 3   
9007 9   
9008 58  
9009 2   
9010 61  
9011 5   
9012 5   
9013 1   
9014 2   
9015 2   
9016 9   
9017 1   
9018 3   
9019 77  
9020 4   
9021 7   
9022 9   
9023 7   
9024 3   
9025 10  
9026 3   
9027 3   
9028 9   
9029 9   
9030 5   
9031 4   
9032 3   
9033 72  
9034 8   
9035 8   
9036 7   
9037 81  
9038 1   
9039 7   
9040 4   
9041 7   
9042 8   
9043 8   
9044 3   
9045 6   
9046 7   
9047 8   
9048 8   
9049 6   
9050 8   
9051 1   
9052 1   
9053 59  
9054 3   
9055 89  
9056 7   
9057 4   
9058 3   
9059 2   
9060 8   
9061 1   
9062 9   
9063 68  
9064 1   
9065 6   
9066 1   
9067 1   
9068 1   
9069 91  
9070 5   
9071 9   
9072 7   
9073 8   
9074 9   
9075 7   
9076 9   
9077 7   
9078 5   
9079 9   
9080 2   
9081 9   
9082 10  
9083 7   
9084 7   
9085 9   
9086 9   
9087 4   
9088 2   
9089 8   
9090 10  
9091 2   
9092 5   
9093 7   
9094 66  
9095 7   
9096 7   
9097 2   
9098 4   
9099 8   
9100 8   
9101 9   
9102 4   
9103 81  
9104 2   
9105 1   
9106 1   
9107 5   
9108 8   
9109 3   
9110 78  
9111 100 
9112 98  
9113 1   
9114 69  
9115 4   
9116 3   
9117 3   
9118 7   
9119 6   
9120 6   
9121 94  
9122 95  
9123 9   
9124 10  
9125 2   
9126 10  
9127 6   
9128 10  
9129 2   
9130 3   
9131 87  
9132 4   
9133 3   
9134 6   
9135 7   
9136 5   
9137 4   
9138 3   
9139 84  
9140 8   
9141 92  
9142 2   
9143 4   
9144 3   
9145 8   
9146 9   
9147 5   
9148 10  
9149 7   
9150 98  
9151 59  
9152 9   
9153 56  
9154 70  
9155 55  
9156 1   
9157 10  
9158 3   
9159 9   
9160 2   
9161 10  
9162 9   
9163 3   
9164 9   
9165 4   
9166 2   
9167 5   
9168 2   
9169 4   
9170 10  
9171 2   
9172 9   
9173 5   
9174 79  
9175 8   
9176 10  
9177 85  
9178 8   
9179 89  
9180 10  
9181 7   
9182 3   
9183 6   
9184 10  
9185 59  
9186 8   
9187 5   
9188 2   
9189 7   
9190 4   
9191 4   
9192 3   
9193 78  
9194 1   
9195 10  
9196 7   
9197 9   
9198 5   
9199 9   
9200 1   
9201 7   
9202 4   
9203 3   
9204 1   
9205 1   
9206 2   
9207 9   
9208 9   
9209 6   
9210 10  
9211 5   
9212 10  
9213 3   
9214 3   
9215 7   
9216 3   
9217 6   
9218 8   
9219 10  
9220 4   
9221 4   
9222 9   
9223 4   
9224 5   
9225 50  
9226 7   
9227 10  
9228 2   
9229 6   
9230 10  
9231 99  
9232 55  
9233 6   
9234 3   
9235 94  
9236 9   
9237 8   
9238 81  
9239 7   
9240 9   
9241 3   
9242 9   
9243 8   
9244 7   
9245 8   
9246 4   
9247 9   
9248 72  
9249 7   
9250 9   
9251 10  
9252 4   
9253 10  
9254 4   
9255 4   
9256 52  
9257 10  
9258 6   
9259 8   
9260 9   
9261 4   
9262 98  
9263 10  
9264 99  
9265 69  
9266 7   
9267 2   
9268 9   
9269 10  
9270 97  
9271 10  
9272 86  
9273 80  
9274 10  
9275 3   
9276 4   
9277 6   
9278 8   
9279 10  
9280 4   
9281 10  
9282 6   
9283 2   
9284 4   
9285 72  
9286 10  
9287 10  
9288 6   
9289 1   
9290 8   
9291 9   
9292 4   
9293 5   
9294 6   
9295 9   
9296 3   
9297 96  
9298 7   
9299 80  
9300 1   
9301 6   
9302 1   
9303 5   
9304 5   
9305 3   
9306 1   
9307 9   
9308 7   
9309 10  
9310 5   
9311 76  
9312 7   
9313 86  
9314 2   
9315 9   
9316 95  
9317 6   
9318 5   
9319 3   
9320 4   
9321 1   
9322 8   
9323 8   
9324 84  
9325 81  
9326 3   
9327 5   
9328 62  
9329 83  
9330 8   
9331 9   
9332 3   
9333 6   
9334 86  
9335 10  
9336 68  
9337 59  
9338 90  
9339 1   
9340 10  
9341 7   
9342 4   
9343 1   
9344 1   
9345 6   
9346 8   
9347 81  
9348 6   
9349 3   
9350 3   
9351 6   
9352 10  
9353 10  
9354 9   
9355 61  
9356 82  
9357 10  
9358 6   
9359 64  
9360 5   
9361 7   
9362 5   
9363 3   
9364 10  
9365 7   
9366 62  
9367 3   
9368 5   
9369 6   
9370 81  
9371 9   
9372 10  
9373 1   
9374 10  
9375 10  
9376 82  
9377 3   
9378 4   
9379 89  
9380 6   
9381 7   
9382 5   
9383 8   
9384 3   
9385 9   
9386 85  
9387 97  
9388 8   
9389 8   
9390 1   
9391 5   
9392 8   
9393 97  
9394 9   
9395 8   
9396 8   
9397 6   
9398 2   
9399 8   
9400 10  
9401 93  
9402 6   
9403 4   
9404 9   
9405 100 
9406 50  
9407 6   
9408 10  
9409 5   
9410 9   
9411 4   
9412 10  
9413 6   
9414 4   
9415 1   
9416 57  
9417 6   
9418 6   
9419 6   
9420 2   
9421 6   
9422 53  
9423 4   
9424 3   
9425 1   
9426 66  
9427 100 
9428 7   
9429 6   
9430 10  
9431 51  
9432 9   
9433 4   
9434 5   
9435 10  
9436 2   
9437 5   
9438 4   
9439 2   
9440 5   
9441 70  
9442 54  
9443 10  
9444 6   
9445 90  
9446 5   
9447 2   
9448 10  
9449 8   
9450 8   
9451 9   
9452 57  
9453 65  
9454 5   
9455 95  
9456 6   
9457 10  
9458 7   
9459 10  
9460 4   
9461 8   
9462 2   
9463 9   
9464 4   
9465 93  
9466 6   
9467 9   
9468 2   
9469 2   
9470 1   
9471 3   
9472 7   
9473 2   
9474 7   
9475 2   
9476 8   
9477 75  
9478 10  
9479 4   
9480 9   
9481 8   
9482 2   
9483 5   
9484 1   
9485 10  
9486 3   
9487 9   
9488 1   
9489 82  
9490 5   
9491 69  
9492 9   
9493 2   
9494 2   
9495 10  
9496 9   
9497 5   
9498 7   
9499 52  
9500 8   
9501 4   
9502 7   
9503 4   
9504 86  
9505 7   
9506 6   
9507 8   
9508 9   
9509 4   
9510 2   
9511 68  
9512 4   
9513 3   
9514 8   
9515 10  
9516 7   
9517 10  
9518 2   
9519 5   
9520 10  
9521 64  
9522 5   
9523 3   
9524 3   
9525 1   
9526 9   
9527 2   
9528 4   
9529 8   
9530 1   
9531 3   
9532 10  
9533 77  
9534 10  
9535 8   
9536 4   
9537 7   
9538 6   
9539 5   
9540 99  
9541 10  
9542 94  
9543 2   
9544 5   
9545 1   
9546 3   
9547 3   
9548 9   
9549 10  
9550 2   
9551 1   
9552 79  
9553 4   
9554 10  
9555 8   
9556 5   
9557 3   
9558 2   
9559 8   
9560 56  
9561 60  
9562 8   
9563 71  
9564 75  
9565 72  
9566 4   
9567 7   
9568 8   
9569 59  
9570 4   
9571 2   
9572 60  
9573 95  
9574 10  
9575 63  
9576 1   
9577 7   
9578 77  
9579 74  
9580 87  
9581 6   
9582 9   
9583 1   
9584 3   
9585 10  
9586 63  
9587 3   
9588 5   
9589 2   
9590 8   
9591 1   
9592 6   
9593 94  
9594 2   
9595 3   
9596 2   
9597 2   
9598 10  
9599 4   
9600 5   
9601 10  
9602 6   
9603 5   
9604 2   
9605 5   
9606 10  
9607 8   
9608 1   
9609 2   
9610 59  
9611 5   
9612 73  
9613 6   
9614 3   
9615 5   
9616 2   
9617 9   
9618 6   
9619 3   
9620 6   
9621 2   
9622 8   
9623 2   
9624 3   
9625 80  
9626 10  
9627 4   
9628 1   
9629 9   
9630 10  
9631 9   
9632 1   
9633 4   
9634 85  
9635 80  
9636 4   
9637 10  
9638 6   
9639 50  
9640 1   
9641 7   
9642 6   
9643 1   
9644 5   
9645 5   
9646 3   
9647 5   
9648 7   
9649 8   
9650 10  
9651 81  
9652 91  
9653 9   
9654 10  
9655 6   
9656 9   
9657 7   
9658 2   
9659 53  
9660 9   
9661 5   
9662 1   
9663 79  
9664 66  
9665 3   
9666 4   
9667 1   
9668 5   
9669 2   
9670 6   
9671 3   
9672 1   
9673 1   
9674 7   
9675 7   
9676 2   
9677 10  
9678 7   
9679 9   
9680 4   
9681 3   
9682 60  
9683 4   
9684 6   
9685 5   
9686 7   
9687 84  
9688 94  
9689 10  
9690 3   
9691 2   
9692 9   
9693 6   
9694 9   
9695 97  
9696 5   
9697 8   
9698 7   
9699 8   
9700 83  
9701 86  
9702 7   
9703 5   
9704 83  
9705 59  
9706 2   
9707 67  
9708 55  
9709 3   
9710 6   
9711 61  
9712 1   
9713 10  
9714 5   
9715 10  
9716 57  
9717 8   
9718 7   
9719 5   
9720 4   
9721 94  
9722 4   
9723 4   
9724 5   
9725 1   
9726 84  
9727 6   
9728 5   
9729 10  
9730 6   
9731 6   
9732 7   
9733 6   
9734 1   
9735 2   
9736 8   
9737 2   
9738 82  
9739 2   
9740 9   
9741 3   
9742 2   
9743 3   
9744 82  
9745 3   
9746 5   
9747 2   
9748 10  
9749 9   
9750 5   
9751 61  
9752 1   
9753 2   
9754 10  
9755 6   
9756 2   
9757 5   
9758 2   
9759 10  
9760 70  
9761 5   
9762 4   
9763 8   
9764 4   
9765 9   
9766 5   
9767 6   
9768 4   
9769 6   
9770 6   
9771 3   
9772 4   
9773 3   
9774 5   
9775 8   
9776 10  
9777 7   
9778 3   
9779 2   
9780 9   
9781 9   
9782 77  
9783 10  
9784 10  
9785 5   
9786 68  
9787 9   
9788 3   
9789 4   
9790 99  
9791 69  
9792 8   
9793 9   
9794 3   
9795 3   
9796 5   
9797 3   
9798 5   
9799 8   
9800 5   
9801 63  
9802 4   
9803 69  
9804 3   
9805 2   
9806 4   
9807 1   
9808 2   
9809 8   
9810 56  
9811 3   
9812 1   
9813 63  
9814 3   
9815 10  
9816 2   
9817 1   
9818 4   
9819 10  
9820 2   
9821 57  
9822 4   
9823 2   
9824 6   
9825 73  
9826 4   
9827 8   
9828 2   
9829 4   
9830 10  
9831 8   
9832 4   
9833 1   
9834 86  
9835 10  
9836 10  
9837 6   
9838 6   
9839 10  
9840 5   
9841 10  
9842 2   
9843 9   
9844 8   
9845 79  
9846 9   
9847 2   
9848 64  
9849 3   
9850 5   
9851 5   
9852 51  
9853 2   
9854 10  
9855 6   
9856 58  
9857 56  
9858 4   
9859 8   
9860 7   
9861 10  
9862 5   
9863 51  
9864 6   
9865 6   
9866 10  
9867 64  
9868 8   
9869 1   
9870 4   
9871 57  
9872 8   
9873 8   
9874 2   
9875 52  
9876 5   
9877 6   
9878 90  
9879 52  
9880 10  
9881 63  
9882 2   
9883 5   
9884 5   
9885 2   
9886 2   
9887 5   
9888 2   
9889 2   
9890 9   
9891 7   
9892 6   
9893 9   
9894 8   
9895 61  
9896 3   
9897 10  
9898 9   
9899 2   
9900 1   
9901 9   
9902 93  
9903 7   
9904 60  
9905 3   
9906 93  
9907 7   
9908 89  
9909 9   
9910 60  
9911 8   
9912 72  
9913 2   
9914 7   
9915 3   
9916 5   
9917 57  
9918 4   
9919 1   
9920 6   
9921 9   
9922 3   
9923 7   
9924 1   
9925 2   
9926 9   
9927 1   
9928 1   
9929 7   
9930 57  
9931 80  
9932 3   
9933 1   
9934 3   
9935 8   
9936 9   
9937 8   
9938 4   
9939 9   
9940 10  
9941 73  
9942 4   
9943 7   
9944 2   
9945 2   
9946 8   
9947 8   
9948 8   
9949 3   
9950 6   
9951 1   
9952 54  
9953 1   
9954 79  
9955 79  
9956 6   
9957 1   
9958 8   
9959 5   
9960 1   
9961 7   
9962 3   
9963 62  
9964 89  
9965 9   
9966 71  
9967 3   
9968 9   
9969 3   
9970 4   
9971 3   
9972 8   
9973 3   
9974 3   
9975 4   
9976 1   
9977 79  
9978 3   
9979 5   
9980 5   
9981 6   
9982 10  
9983 6   
9984 61  
9985 50  
9986 76  
9987 7   
9988 98  
9989 10  
9990 7   
9991 3   
9992 2   
9993 72  
9994 69  
9995 6   
9996 4   
9997 84  
9998 4   
9999 5   
10000 58  
10001 5   
10002 2   
10003 7   
10004 5   
10005 2   
10006 6   
10007 6   
10008 1   
10009 8   
10010 7   
10011 9   
10012 7   
10013 10  
10014 5   
10015 7   
10016 3   
10017 9   
10018 2   
10019 7   
10020 1   
10021 2   
10022 58  
10023 2   
10024 2   
10025 6   
10026 80  
10027 6   
10028 10  
10029 7   
10030 80  
10031 10  
10032 8   
10033 5   
10034 4   
10035 10  
10036 50  
10037 2   
10038 6   
10039 78  
10040 6   
10041 10  
10042 5   
10043 8   
10044 3   
10045 8   
10046 64  
10047 5   
10048 9   
10049 10  
10050 8   
10051 8   
10052 93  
10053 7   
10054 6   
10055 5   
10056 7   
10057 6   
10058 1   
10059 70  
10060 53  
10061 5   
10062 2   
10063 1   
10064 1   
10065 8   
10066 3   
10067 86  
10068 2   
10069 96  
10070 8   
10071 3   
10072 2   
10073 7   
10074 5   
10075 9   
10076 9   
10077 4   
10078 3   
10079 90  
10080 1   
10081 10  
10082 9   
10083 6   
10084 6   
10085 70  
10086 10  
10087 8   
10088 6   
10089 1   
10090 4   
10091 9   
10092 9   
10093 1   
10094 8   
10095 69  
10096 1   
10097 10  
10098 96  
10099 86  
10100 2   
10101 6   
10102 6   
10103 7   
10104 6   
10105 1   
10106 5   
10107 6   
10108 1   
10109 3   
10110 6   
10111 7   
10112 5   
10113 64  
10114 8   
10115 2   
10116 10  
10117 10  
10118 9   
10119 10  
10120 2   
10121 2   
10122 68  
10123 2   
10124 56  
10125 1   
10126 3   
10127 7   
10128 1   
10129 8   
10130 8   
10131 2   
10132 5   
10133 61  
10134 10  
10135 3   
10136 1   
10137 9   
10138 10  
10139 7   
10140 5   
10141 10  
10142 55  
10143 7   
10144 9   
10145 2   
10146 1   
10147 1   
10148 10  
10149 1   
10150 60  
10151 2   
10152 2   
10153 6   
10154 4   
10155 1   
10156 4   
10157 2   
10158 8   
10159 5   
10160 3   
10161 5   
10162 5   
10163 7   
10164 6   
10165 89  
10166 7   
10167 6   
10168 2   
10169 5   
10170 9   
10171 5   
10172 8   
10173 5   
10174 4   
10175 2   
10176 7   
10177 3   
10178 9   
10179 5   
10180 82  
10181 4   
10182 1   
10183 7   
10184 7   
10185 5   
10186 70  
10187 4   
10188 89  
10189 90  
10190 66  
10191 2   
10192 5   
10193 3   
10194 8   
10195 10  
10196 5   
10197 54  
10198 6   
10199 4   
10200 2   
10201 74  
10202 6   
10203 6   
10204 10  
10205 6   
10206 1   
10207 1   
10208 3   
10209 89  
10210 4   
10211 4   
10212 1   
10213 5   
10214 10  
10215 7   
10216 56  
10217 8   
10218 86  
10219 61  
10220 6   
10221 10  
10222 7   
10223 2   
10224 5   
10225 9   
10226 2   
10227 3   
10228 99  
10229 3   
10230 3   
10231 4   
10232 1   
10233 9   
10234 7   
10235 70  
10236 3   
10237 7   
10238 5   
10239 8   
10240 7   
10241 7   
10242 61  
10243 8   
10244 4   
10245 4   
10246 7   
10247 87  
10248 4   
10249 60  
10250 93  
10251 9   
10252 5   
10253 10  
10254 1   
10255 1   
10256 1   
10257 6   
10258 9   
10259 51  
10260 9   
10261 3   
10262 50  
10263 4   
10264 4   
10265 3   
10266 10  
10267 9   
10268 6   
10269 9   
10270 98  
10271 9   
10272 6   
10273 93  
10274 8   
10275 5   
10276 2   
10277 8   
10278 94  
10279 7   
10280 4   
10281 5   
10282 1   
10283 7   
10284 60  
10285 58  
10286 5   
10287 3   
10288 5   
10289 10  
10290 8   
10291 4   
10292 71  
10293 4   
10294 59  
10295 7   
10296 2   
10297 1   
10298 91  
10299 5   
10300 1   
10301 1   
10302 10  
10303 5   
10304 5   
10305 2   
10306 4   
10307 90  
10308 6   
10309 8   
10310 8   
10311 3   
10312 59  
10313 10  
10314 77  
10315 7   
10316 71  
10317 3   
10318 1   
10319 3   
10320 3   
10321 10  
10322 9   
10323 94  
10324 80  
10325 5   
10326 2   
10327 9   
10328 8   
10329 70  
10330 5   
10331 2   
10332 60  
10333 1   
10334 10  
10335 1   
10336 10  
10337 6   
10338 8   
10339 4   
10340 4   
10341 2   
10342 1   
10343 54  
10344 8   
10345 4   
10346 7   
10347 5   
10348 60  
10349 5   
10350 8   
10351 5   
10352 10  
10353 5   
10354 8   
10355 69  
10356 1   
10357 4   
10358 3   
10359 5   
10360 2   
10361 7   
10362 4   
10363 3   
10364 6   
10365 10  
10366 7   
10367 9   
10368 10  
10369 3   
10370 4   
10371 9   
10372 4   
10373 4   
10374 5   
10375 6   
10376 2   
10377 7   
10378 4   
10379 95  
10380 6   
10381 10  
10382 7   
10383 8   
10384 94  
10385 10  
10386 67  
10387 93  
10388 86  
10389 4   
10390 2   
10391 70  
10392 9   
10393 84  
10394 10  
10395 60  
10396 9   
10397 65  
10398 89  
10399 86  
10400 10  
10401 10  
10402 3   
10403 2   
10404 2   
10405 1   
10406 56  
10407 10  
10408 9   
10409 7   
10410 8   
10411 6   
10412 9   
10413 100 
10414 89  
10415 4   
10416 10  
10417 2   
10418 3   
10419 5   
10420 4   
10421 9   
10422 2   
10423 88  
10424 6   
10425 5   
10426 8   
10427 3   
10428 1   
10429 8   
10430 1   
10431 4   
10432 2   
10433 8   
10434 2   
10435 8   
10436 5   
10437 62  
10438 60  
10439 3   
10440 10  
10441 1   
10442 7   
10443 7   
10444 6   
10445 7   
10446 9   
10447 1   
10448 6   
10449 4   
10450 6   
10451 7   
10452 6   
10453 1   
10454 56  
10455 81  
10456 4   
10457 60  
10458 8   
10459 5   
10460 75  
10461 10  
10462 4   
10463 9   
10464 9   
10465 1   
10466 6   
10467 67  
10468 8   
10469 56  
10470 9   
10471 6   
10472 69  
10473 2   
10474 7   
10475 1   
10476 10  
10477 9   
10478 10  
10479 6   
10480 4   
10481 1   
10482 4   
10483 2   
10484 95  
10485 5   
10486 2   
10487 4   
10488 69  
10489 3   
10490 10  
10491 6   
10492 6   
10493 2   
10494 9   
10495 9   
10496 6   
10497 6   
10498 1   
10499 6   
10500 1   
10501 3   
10502 3   
10503 3   
10504 1   
10505 10  
10506 5   
10507 4   
10508 7   
10509 4   
10510 70  
10511 2   
10512 53  
10513 10  
10514 10  
10515 2   
10516 1   
10517 1   
10518 5   
10519 74  
10520 4   
10521 8   
10522 10  
10523 4   
10524 6   
10525 6   
10526 1   
10527 10  
10528 2   
10529 8   
10530 2   
10531 7   
10532 10  
10533 4   
10534 9   
10535 82  
10536 6   
10537 10  
10538 4   
10539 100 
10540 1   
10541 7   
10542 9   
10543 1   
10544 99  
10545 6   
10546 5   
10547 6   
10548 4   
10549 76  
10550 1   
10551 6   
10552 5   
10553 3   
10554 10  
10555 10  
10556 8   
10557 5   
10558 5   
10559 8   
10560 91  
10561 4   
10562 61  
10563 9   
10564 69  
10565 1   
10566 78  
10567 3   
10568 78  
10569 4   
10570 7   
10571 1   
10572 3   
10573 7   
10574 10  
10575 2   
10576 9   
10577 6   
10578 2   
10579 68  
10580 9   
10581 2   
10582 10  
10583 9   
10584 1   
10585 6   
10586 7   
10587 9   
10588 10  
10589 6   
10590 9   
10591 2   
10592 4   
10593 1   
10594 1   
10595 87  
10596 1   
10597 6   
10598 2   
10599 8   
10600 8   
10601 10  
10602 65  
10603 4   
10604 8   
10605 9   
10606 4   
10607 50  
10608 3   
10609 7   
10610 99  
10611 9   
10612 72  
10613 10  
10614 6   
10615 2   
10616 7   
10617 8   
10618 4   
10619 5   
10620 3   
10621 3   
10622 7   
10623 80  
10624 8   
10625 80  
10626 3   
10627 5   
10628 7   
10629 3   
10630 3   
10631 1   
10632 1   
10633 6   
10634 3   
10635 4   
10636 1   
10637 72  
10638 3   
10639 4   
10640 1   
10641 73  
10642 4   
10643 50  
10644 4   
10645 6   
10646 2   
10647 4   
10648 2   
10649 6   
10650 8   
10651 4   
10652 6   
10653 1   
10654 94  
10655 58  
10656 96  
10657 9   
10658 3   
10659 1   
10660 5   
10661 10  
10662 4   
10663 5   
10664 9   
10665 1   
10666 97  
10667 80  
10668 4   
10669 6   
10670 5   
10671 6   
10672 1   
10673 6   
10674 99  
10675 7   
10676 2   
10677 69  
10678 78  
10679 2   
10680 8   
10681 4   
10682 8   
10683 5   
10684 53  
10685 9   
10686 9   
10687 1   
10688 9   
10689 3   
10690 8   
10691 69  
10692 51  
10693 7   
10694 6   
10695 1   
10696 51  
10697 8   
10698 5   
10699 5   
10700 1   
10701 9   
10702 2   
10703 1   
10704 10  
10705 5   
10706 1   
10707 3   
10708 6   
10709 10  
10710 10  
10711 6   
10712 4   
10713 7   
10714 2   
10715 8   
10716 6   
10717 5   
10718 3   
10719 7   
10720 7   
10721 4   
10722 87  
10723 5   
10724 93  
10725 4   
10726 5   
10727 9   
10728 4   
10729 5   
10730 57  
10731 2   
10732 3   
10733 9   
10734 50  
10735 3   
10736 5   
10737 91  
10738 6   
10739 10  
10740 64  
10741 9   
10742 1   
10743 54  
10744 59  
10745 3   
10746 93  
10747 5   
10748 2   
10749 10  
10750 83  
10751 6   
10752 6   
10753 83  
10754 4   
10755 4   
10756 2   
10757 7   
10758 4   
10759 7   
10760 51  
10761 9   
10762 2   
10763 5   
10764 2   
10765 10  
10766 9   
10767 5   
10768 10  
10769 6   
10770 5   
10771 4   
10772 8   
10773 2   
10774 72  
10775 6   
10776 5   
10777 4   
10778 2   
10779 6   
10780 8   
10781 5   
10782 3   
10783 4   
10784 5   
10785 9   
10786 10  
10787 1   
10788 4   
10789 99  
10790 8   
10791 2   
10792 81  
10793 6   
10794 8   
10795 57  
10796 4   
10797 7   
10798 10  
10799 96  
10800 6   
10801 50  
10802 6   
10803 5   
10804 8   
10805 4   
10806 6   
10807 3   
10808 8   
10809 7   
10810 5   
10811 4   
10812 52  
10813 3   
10814 4   
10815 2   
10816 1   
10817 85  
10818 6   
10819 7   
10820 5   
10821 10  
10822 9   
10823 9   
10824 2   
10825 64  
10826 10  
10827 6   
10828 6   
10829 79  
10830 60  
10831 7   
10832 8   
10833 2   
10834 82  
10835 8   
10836 1   
10837 74  
10838 87  
10839 4   
10840 3   
10841 95  
10842 1   
10843 3   
10844 51  
10845 10  
10846 74  
10847 6   
10848 80  
10849 4   
10850 5   
10851 9   
10852 1   
10853 6   
10854 82  
10855 6   
10856 2   
10857 9   
10858 1   
10859 5   
10860 3   
10861 8   
10862 8   
10863 7   
10864 2   
10865 2   
10866 4   
10867 10  
10868 2   
10869 5   
10870 3   
10871 10  
10872 10  
10873 10  
10874 4   
10875 1   
10876 98  
10877 10  
10878 6   
10879 2   
10880 9   
10881 7   
10882 54  
10883 9   
10884 10  
10885 3   
10886 8   
10887 10  
10888 10  
10889 1   
10890 50  
10891 5   
10892 3   
10893 97  
10894 7   
10895 74  
10896 2   
10897 4   
10898 85  
10899 80  
10900 7   
10901 6   
10902 9   
10903 8   
10904 3   
10905 6   
10906 4   
10907 9   
10908 3   
10909 6   
10910 6   
10911 73  
10912 10  
10913 1   
10914 87  
10915 10  
10916 9   
10917 5   
10918 5   
10919 51  
10920 5   
10921 3   
10922 3   
10923 57  
10924 9   
10925 57  
10926 3   
10927 70  
10928 2   
10929 1   
10930 73  
10931 10  
10932 8   
10933 2   
10934 2   
10935 2   
10936 2   
10937 1   
10938 74  
10939 6   
10940 9   
10941 99  
10942 10  
10943 10  
10944 4   
10945 2   
10946 7   
10947 10  
10948 8   
10949 9   
10950 9   
10951 2   
10952 6   
10953 5   
10954 1   
10955 4   
10956 7   
10957 7   
10958 85  
10959 4   
10960 2   
10961 1   
10962 8   
10963 7   
10964 5   
10965 6   
10966 7   
10967 1   
10968 81  
10969 9   
10970 8   
10971 65  
10972 75  
10973 1   
10974 8   
10975 74  
10976 1   
10977 5   
10978 7   
10979 5   
10980 10  
10981 6   
10982 65  
10983 5   
10984 5   
10985 3   
10986 9   
10987 7   
10988 4   
10989 1   
10990 3   
10991 3   
10992 3   
10993 6   
10994 57  
10995 83  
10996 64  
10997 8   
10998 1   
10999 8   
11000 1   
11001 3   
11002 4   
11003 4   
11004 1   
11005 3   
11006 1   
11007 59  
11008 4   
11009 6   
11010 5   
11011 1   
11012 3   
11013 2   
11014 10  
11015 69  
11016 7   
11017 6   
11018 7   
11019 1   
11020 81  
11021 67  
11022 4   
11023 7   
11024 6   
11025 6   
11026 6   
11027 6   
11028 5   
11029 7   
11030 1   
11031 60  
11032 1   
11033 2   
11034 1   
11035 2   
11036 7   
11037 9   
11038 2   
11039 89  
11040 9   
11041 10  
11042 7   
11043 62  
11044 2   
11045 4   
11046 55  
11047 1   
11048 3   
11049 59  
11050 97  
11051 4   
11052 5   
11053 2   
11054 7   
11055 9   
11056 55  
11057 5   
11058 4   
11059 9   
11060 3   
11061 8   
11062 3   
11063 5   
11064 3   
11065 3   
11066 4   
11067 8   
11068 3   
11069 60  
11070 9   
11071 9   
11072 7   
11073 1   
11074 10  
11075 6   
11076 6   
11077 1   
11078 73  
11079 10  
11080 5   
11081 7   
11082 4   
11083 4   
11084 6   
11085 4   
11086 7   
11087 1   
11088 2   
11089 6   
11090 8   
11091 99  
11092 9   
11093 7   
11094 3   
11095 64  
11096 6   
11097 1   
11098 7   
11099 9   
11100 5   
11101 3   
11102 5   
11103 58  
11104 7   
11105 6   
11106 7   
11107 10  
11108 4   
11109 7   
11110 8   
11111 7   
11112 10  
11113 6   
11114 6   
11115 3   
11116 50  
11117 10  
11118 8   
11119 1   
11120 5   
11121 87  
11122 10  
11123 2   
11124 7   
11125 5   
11126 1   
11127 1   
11128 8   
11129 9   
11130 87  
11131 9   
11132 6   
11133 54  
11134 4   
11135 1   
11136 3   
11137 92  
11138 59  
11139 4   
11140 5   
11141 60  
11142 7   
11143 7   
11144 5   
11145 9   
11146 69  
11147 9   
11148 6   
11149 96  
11150 4   
11151 1   
11152 6   
11153 2   
11154 10  
11155 51  
11156 2   
11157 2   
11158 7   
11159 9   
11160 8   
11161 69  
11162 6   
11163 6   
11164 2   
11165 2   
11166 8   
11167 8   
11168 8   
11169 72  
11170 3   
11171 1   
11172 10  
11173 96  
11174 7   
11175 10  
11176 5   
11177 8   
11178 92  
11179 8   
11180 6   
11181 8   
11182 68  
11183 64  
11184 8   
11185 3   
11186 6   
11187 79  
11188 8   
11189 6   
11190 1   
11191 8   
11192 9   
11193 10  
11194 6   
11195 5   
11196 4   
11197 6   
11198 6   
11199 4   
11200 3   
11201 7   
11202 8   
11203 85  
11204 6   
11205 2   
11206 2   
11207 10  
11208 8   
11209 4   
11210 5   
11211 6   
11212 8   
11213 10  
11214 2   
11215 1   
11216 1   
11217 9   
11218 10  
11219 2   
11220 5   
11221 10  
11222 10  
11223 4   
11224 10  
11225 2   
11226 2   
11227 6   
11228 10  
11229 75  
11230 9   
11231 6   
11232 68  
11233 4   
11234 1   
11235 9   
11236 10  
11237 1   
11238 9   
11239 75  
11240 7   
11241 8   
11242 6   
11243 6   
11244 2   
11245 8   
11246 67  
11247 91  
11248 8   
11249 80  
11250 6   
11251 4   
11252 9   
11253 75  
11254 8   
11255 7   
11256 4   
11257 2   
11258 6   
11259 3   
11260 4   
11261 9   
11262 5   
11263 8   
11264 5   
11265 9   
11266 9   
11267 9   
11268 87  
11269 4   
11270 1   
11271 1   
11272 1   
11273 54  
11274 80  
11275 5   
11276 4   
11277 1   
11278 6   
11279 5   
11280 3   
11281 5   
11282 1   
11283 2   
11284 1   
11285 8   
11286 97  
11287 9   
11288 95  
11289 58  
11290 4   
11291 7   
11292 5   
11293 6   
11294 3   
11295 9   
11296 8   
11297 9   
11298 9   
11299 8   
11300 87  
11301 9   
11302 1   
11303 4   
11304 8   
11305 9   
11306 6   
11307 6   
11308 1   
11309 5   
11310 1   
11311 6   
11312 5   
11313 10  
11314 5   
11315 6   
11316 2   
11317 3   
11318 9   
11319 4   
11320 2   
11321 10  
11322 2   
11323 10  
11324 7   
11325 1   
11326 1   
11327 4   
11328 10  
11329 4   
11330 8   
11331 5   
11332 10  
11333 5   
11334 1   
11335 5   
11336 1   
11337 6   
11338 9   
11339 7   
11340 5   
11341 8   
11342 7   
11343 81  
11344 71  
11345 6   
11346 8   
11347 1   
11348 72  
11349 9   
11350 5   
11351 4   
11352 6   
11353 9   
11354 9   
11355 2   
11356 2   
11357 2   
11358 6   
11359 1   
11360 75  
11361 2   
11362 1   
11363 7   
11364 4   
11365 8   
11366 72  
11367 66  
11368 2   
11369 4   
11370 5   
11371 4   
11372 7   
11373 61  
11374 4   
11375 7   
11376 1   
11377 1   
11378 5   
11379 8   
11380 97  
11381 5   
11382 1   
11383 1   
11384 1   
11385 10  
11386 6   
11387 4   
11388 5   
11389 70  
11390 71  
11391 6   
11392 99  
11393 2   
11394 6   
11395 1   
11396 73  
11397 9   
11398 90  
11399 2   
11400 8   
11401 5   
11402 4   
11403 5   
11404 8   
11405 5   
11406 5   
11407 9   
11408 4   
11409 4   
11410 9   
11411 6   
11412 4   
11413 6   
11414 10  
11415 81  
11416 54  
11417 3   
11418 9   
11419 2   
11420 5   
11421 1   
11422 4   
11423 9   
11424 1   
11425 6   
11426 9   
11427 4   
11428 1   
11429 5   
11430 7   
11431 8   
11432 8   
11433 10  
11434 1   
11435 10  
11436 1   
11437 4   
11438 4   
11439 7   
11440 10  
11441 10  
11442 2   
11443 3   
11444 6   
11445 10  
11446 10  
11447 9   
11448 80  
11449 6   
11450 4   
11451 64  
11452 10  
11453 56  
11454 4   
11455 2   
11456 7   
11457 10  
11458 10  
11459 9   
11460 2   
11461 1   
11462 8   
11463 10  
11464 6   
11465 10  
11466 2   
11467 6   
11468 4   
11469 80  
11470 5   
11471 7   
11472 85  
11473 9   
11474 10  
11475 95  
11476 95  
11477 10  
11478 2   
11479 10  
11480 74  
11481 9   
11482 2   
11483 1   
11484 10  
11485 7   
11486 9   
11487 3   
11488 8   
11489 1   
11490 8   
11491 99  
11492 7   
11493 3   
11494 2   
11495 5   
11496 4   
11497 7   
11498 9   
11499 2   
11500 78  
11501 9   
11502 8   
11503 4   
11504 61  
11505 6   
11506 7   
11507 10  
11508 8   
11509 3   
11510 10  
11511 3   
11512 5   
11513 2   
11514 8   
11515 7   
11516 3   
11517 1   
11518 6   
11519 3   
11520 3   
11521 8   
11522 2   
11523 100 
11524 5   
11525 5   
11526 83  
11527 5   
11528 63  
11529 9   
11530 6   
11531 4   
11532 82  
11533 67  
11534 88  
11535 10  
11536 1   
11537 60  
11538 2   
11539 10  
11540 64  
11541 3   
11542 80  
11543 8   
11544 90  
11545 1   
11546 3   
11547 3   
11548 5   
11549 10  
11550 10  
11551 5   
11552 8   
11553 50  
11554 2   
11555 10  
11556 5   
11557 6   
11558 5   
11559 5   
11560 1   
11561 61  
11562 9   
11563 1   
11564 8   
11565 9   
11566 5   
11567 4   
11568 3   
11569 7   
11570 2   
11571 3   
11572 1   
11573 3   
11574 80  
11575 6   
11576 9   
11577 4   
11578 9   
11579 2   
11580 4   
11581 4   
11582 58  
11583 6   
11584 9   
11585 7   
11586 3   
11587 2   
11588 3   
11589 81  
11590 4   
11591 7   
11592 2   
11593 2   
11594 5   
11595 7   
11596 70  
11597 73  
11598 7   
11599 1   
11600 2   
11601 67  
11602 2   
11603 3   
11604 9   
11605 7   
11606 3   
11607 81  
11608 69  
11609 9   
11610 1   
11611 84  
11612 92  
11613 69  
11614 2   
11615 7   
11616 8   
11617 2   
11618 8   
11619 3   
11620 2   
11621 7   
11622 7   
11623 76  
11624 10  
11625 10  
11626 1   
11627 6   
11628 2   
11629 7   
11630 9   
11631 6   
11632 2   
11633 8   
11634 1   
11635 3   
11636 8   
11637 1   
11638 10  
11639 3   
11640 8   
11641 4   
11642 1   
11643 5   
11644 6   
11645 9   
11646 3   
11647 77  
11648 9   
11649 2   
11650 2   
11651 4   
11652 10  
11653 50  
11654 51  
11655 9   
11656 5   
11657 6   
11658 3   
11659 10  
11660 8   
11661 56  
11662 8   
11663 2   
11664 66  
11665 81  
11666 1   
11667 5   
11668 58  
11669 10  
11670 96  
11671 4   
11672 92  
11673 2   
11674 6   
11675 6   
11676 10  
11677 74  
11678 72  
11679 5   
11680 9   
11681 9   
11682 83  
11683 78  
11684 9   
11685 4   
11686 1   
11687 2   
11688 5   
11689 73  
11690 4   
11691 1   
11692 9   
11693 10  
11694 10  
11695 2   
11696 94  
11697 4   
11698 78  
11699 10  
11700 6   
11701 9   
11702 9   
11703 2   
11704 4   
11705 4   
11706 6   
11707 1   
11708 1   
11709 68  
11710 2   
11711 2   
11712 3   
11713 2   
11714 94  
11715 5   
11716 85  
11717 10  
11718 6   
11719 67  
11720 6   
11721 8   
11722 9   
11723 96  
11724 1   
11725 5   
11726 5   
11727 3   
11728 8   
11729 6   
11730 5   
11731 83  
11732 1   
11733 2   
11734 1   
11735 79  
11736 3   
11737 4   
11738 10  
11739 8   
11740 10  
11741 100 
11742 9   
11743 4   
11744 2   
11745 6   
11746 1   
11747 73  
11748 8   
11749 7   
11750 1   
11751 9   
11752 73  
11753 4   
11754 99  
11755 10  
11756 7   
11757 9   
11758 4   
11759 1   
11760 10  
11761 90  
11762 4   
11763 5   
11764 3   
11765 77  
11766 10  
11767 7   
11768 5   
11769 4   
11770 3   
11771 5   
11772 2   
11773 4   
11774 7   
11775 99  
11776 5   
11777 5   
11778 2   
11779 6   
11780 5   
11781 10  
11782 2   
11783 63  
11784 1   
11785 6   
11786 2   
11787 59  
11788 10  
11789 1   
11790 1   
11791 5   
11792 3   
11793 4   
11794 5   
11795 5   
11796 3   
11797 8   
11798 1   
11799 8   
11800 2   
11801 8   
11802 81  
11803 8   
11804 6   
11805 5   
11806 2   
11807 60  
11808 3   
11809 1   
11810 2   
11811 8   
11812 65  
11813 75  
11814 5   
11815 8   
11816 1   
11817 10  
11818 10  
11819 2   
11820 10  
11821 6   
11822 4   
11823 50  
11824 7   
11825 3   
11826 3   
11827 80  
11828 9   
11829 7   
11830 4   
11831 7   
11832 78  
11833 90  
11834 1   
11835 1   
11836 4   
11837 9   
11838 4   
11839 100 
11840 4   
11841 9   
11842 1   
11843 75  
11844 10  
11845 95  
11846 81  
11847 4   
11848 60  
11849 6   
11850 67  
11851 2   
11852 92  
11853 2   
11854 6   
11855 10  
11856 3   
11857 1   
11858 4   
11859 10  
11860 8   
11861 9   
11862 77  
11863 66  
11864 2   
11865 2   
11866 5   
11867 2   
11868 2   
11869 1   
11870 9   
11871 1   
11872 10  
11873 4   
11874 9   
11875 4   
11876 4   
11877 8   
11878 93  
11879 9   
11880 5   
11881 9   
11882 1   
11883 4   
11884 1   
11885 5   
11886 5   
11887 99  
11888 10  
11889 51  
11890 6   
11891 5   
11892 6   
11893 1   
11894 3   
11895 56  
11896 60  
11897 6   
11898 4   
11899 3   
11900 9   
11901 6   
11902 88  
11903 1   
11904 10  
11905 2   
11906 3   
11907 9   
11908 7   
11909 1   
11910 10  
11911 53  
11912 1   
11913 7   
11914 4   
11915 2   
11916 2   
11917 68  
11918 4   
11919 7   
11920 67  
11921 4   
11922 9   
11923 3   
11924 1   
11925 52  
11926 76  
11927 5   
11928 56  
11929 8   
11930 5   
11931 6   
11932 2   
11933 96  
11934 3   
11935 4   
11936 6   
11937 72  
11938 65  
11939 97  
11940 1   
11941 10  
11942 3   
11943 96  
11944 2   
11945 99  
11946 4   
11947 7   
11948 7   
11949 9   
11950 4   
11951 99  
11952 55  
11953 7   
11954 8   
11955 84  
11956 7   
11957 7   
11958 6   
11959 1   
11960 3   
11961 2   
11962 10  
11963 96  
11964 2   
11965 1   
11966 10  
11967 91  
11968 2   
11969 1   
11970 65  
11971 10  
11972 6   
11973 10  
11974 2   
11975 2   
11976 10  
11977 7   
11978 6   
11979 3   
11980 69  
11981 6   
11982 8   
11983 5   
11984 72  
11985 5   
11986 3   
11987 5   
11988 8   
11989 2   
11990 3   
11991 3   
11992 5   
11993 7   
11994 77  
11995 3   
11996 3   
11997 8   
11998 4   
11999 9   
12000 4   
12001 4   
12002 84  
12003 10  
12004 3   
12005 1   
12006 54  
12007 56  
12008 1   
12009 1   
12010 6   
12011 60  
12012 9   
12013 1   
12014 8   
12015 4   
12016 1   
12017 83  
12018 7   
12019 1   
12020 62  
12021 8   
12022 1   
12023 4   
12024 2   
12025 3   
12026 1   
12027 2   
12028 90  
12029 10  
12030 3   
12031 60  
12032 5   
12033 9   
12034 63  
12035 70  
12036 10  
12037 9   
12038 55  
12039 7   
12040 2   
12041 77  
12042 10  
12043 7   
12044 1   
12045 6   
12046 8   
12047 8   
12048 7   
12049 2   
12050 97  
12051 74  
12052 6   
12053 3   
12054 9   
12055 6   
12056 10  
12057 10  
12058 3   
12059 6   
12060 5   
12061 79  
12062 9   
12063 8   
12064 4   
12065 5   
12066 4   
12067 95  
12068 5   
12069 98  
12070 6   
12071 4   
12072 3   
12073 7   
12074 1   
12075 3   
12076 8   
12077 7   
12078 6   
12079 9   
12080 6   
12081 9   
12082 1   
12083 6   
12084 83  
12085 1   
12086 2   
12087 88  
12088 8   
12089 2   
12090 7   
12091 10  
12092 1   
12093 9   
12094 5   
12095 5   
12096 1   
12097 6   
12098 3   
12099 2   
12100 73  
12101 3   
12102 1   
12103 6   
12104 6   
12105 8   
12106 8   
12107 98  
12108 5   
12109 3   
12110 8   
12111 3   
12112 3   
12113 6   
12114 10  
12115 2   
12116 6   
12117 7   
12118 93  
12119 9   
12120 3   
12121 74  
12122 92  
12123 6   
12124 3   
12125 8   
12126 3   
12127 52  
12128 6   
12129 4   
12130 6   
12131 3   
12132 10  
12133 8   
12134 90  
12135 9   
12136 10  
12137 100 
12138 7   
12139 79  
12140 2   
12141 9   
12142 5   
12143 84  
12144 8   
12145 4   
12146 5   
12147 6   
12148 6   
12149 10  
12150 3   
12151 4   
12152 85  
12153 9   
12154 10  
12155 6   
12156 5   
12157 6   
12158 4   
12159 81  
12160 4   
12161 8   
12162 73  
12163 1   
12164 2   
12165 7   
12166 4   
12167 3   
12168 6   
12169 1   
12170 7   
12171 4   
12172 5   
12173 2   
12174 6   
12175 2   
12176 8   
12177 9   
12178 10  
12179 5   
12180 5   
12181 61  
12182 3   
12183 4   
12184 4   
12185 6   
12186 5   
12187 5   
12188 1   
12189 78  
12190 3   
12191 1   
12192 6   
12193 4   
12194 5   
12195 4   
12196 8   
12197 9   
12198 3   
12199 93  
12200 65  
12201 3   
12202 10  
12203 10  
12204 1   
12205 4   
12206 9   
12207 1   
12208 4   
12209 92  
12210 4   
12211 8   
12212 7   
12213 62  
12214 8   
12215 7   
12216 2   
12217 6   
12218 2   
12219 2   
12220 53  
12221 5   
12222 10  
12223 9   
12224 1   
12225 88  
12226 10  
12227 10  
12228 8   
12229 5   
12230 2   
12231 3   
12232 8   
12233 1   
12234 6   
12235 6   
12236 6   
12237 3   
12238 6   
12239 95  
12240 10  
12241 82  
12242 3   
12243 4   
12244 9   
12245 5   
12246 2   
12247 1   
12248 7   
12249 5   
12250 6   
12251 7   
12252 1   
12253 7   
12254 1   
12255 9   
12256 8   
12257 78  
12258 72  
12259 3   
12260 6   
12261 6   
12262 9   
12263 64  
12264 7   
12265 4   
12266 10  
12267 84  
12268 2   
12269 3   
12270 9   
12271 4   
12272 6   
12273 7   
12274 60  
12275 7   
12276 10  
12277 3   
12278 1   
12279 7   
12280 3   
12281 77  
12282 5   
12283 2   
12284 10  
12285 10  
12286 5   
12287 4   
12288 3   
12289 1   
12290 2   
12291 1   
12292 10  
12293 7   
12294 97  
12295 2   
12296 68  
12297 81  
12298 58  
12299 9   
12300 52  
12301 63  
12302 1   
12303 10  
12304 7   
12305 4   
12306 10  
12307 5   
12308 6   
12309 9   
12310 1   
12311 5   
12312 3   
12313 1   
12314 2   
12315 6   
12316 5   
12317 8   
12318 3   
12319 100 
12320 8   
12321 1   
12322 2   
12323 6   
12324 10  
12325 2   
12326 2   
12327 1   
12328 4   
12329 3   
12330 5   
12331 9   
12332 85  
12333 61  
12334 5   
12335 98  
12336 2   
12337 9   
12338 2   
12339 7   
12340 6   
12341 2   
12342 76  
12343 9   
12344 68  
12345 8   
12346 10  
12347 6   
12348 6   
12349 6   
12350 8   
12351 3   
12352 82  
12353 96  
12354 1   
12355 1   
12356 86  
12357 3   
12358 4   
12359 9   
12360 4   
12361 6   
12362 3   
12363 66  
12364 10  
12365 6   
12366 10  
12367 1   
12368 8   
12369 7   
12370 8   
12371 7   
12372 78  
12373 4   
12374 10  
12375 1   
12376 8   
12377 51  
12378 5   
12379 9   
12380 10  
12381 10  
12382 1   
12383 10  
12384 89  
12385 2   
12386 7   
12387 4   
12388 5   
12389 5   
12390 75  
12391 1   
12392 3   
12393 2   
12394 6   
12395 5   
12396 3   
12397 3   
12398 5   
12399 57  
12400 4   
12401 9   
12402 6   
12403 6   
12404 5   
12405 1   
12406 4   
12407 7   
12408 6   
12409 3   
12410 2   
12411 2   
12412 10  
12413 3   
12414 76  
12415 4   
12416 4   
12417 1   
12418 2   
12419 8   
12420 67  
12421 63  
12422 92  
12423 6   
12424 3   
12425 5   
12426 6   
12427 10  
12428 8   
12429 83  
12430 3   
12431 9   
12432 10  
12433 5   
12434 3   
12435 3   
12436 9   
12437 1   
12438 10  
12439 1   
12440 85  
12441 9   
12442 1   
12443 1   
12444 50  
12445 77  
12446 96  
12447 6   
12448 1   
12449 7   
12450 3   
12451 10  
12452 5   
12453 2   
12454 71  
12455 6   
12456 98  
12457 50  
12458 6   
12459 4   
12460 85  
12461 8   
12462 4   
12463 3   
12464 4   
12465 4   
12466 73  
12467 4   
12468 1   
12469 6   
12470 5   
12471 1   
12472 10  
12473 5   
12474 71  
12475 2   
12476 4   
12477 61  
12478 60  
12479 61  
12480 90  
12481 3   
12482 3   
12483 3   
12484 6   
12485 9   
12486 71  
12487 5   
12488 65  
12489 7   
12490 3   
12491 57  
12492 10  
12493 1   
12494 82  
12495 2   
12496 2   
12497 59  
12498 3   
12499 5   
12500 9   
12501 3   
12502 1   
12503 90  
12504 10  
12505 1   
12506 5   
12507 60  
12508 7   
12509 9   
12510 8   
12511 76  
12512 7   
12513 4   
12514 10  
12515 1   
12516 60  
12517 71  
12518 1   
12519 3   
12520 9   
12521 2   
12522 100 
12523 4   
12524 7   
12525 3   
12526 8   
12527 8   
12528 9   
12529 9   
12530 6   
12531 1   
12532 9   
12533 52  
12534 1   
12535 3   
12536 2   
12537 9   
12538 1   
12539 7   
12540 9   
12541 3   
12542 3   
12543 8   
12544 78  
12545 6   
12546 6   
12547 3   
12548 10  
12549 2   
12550 8   
12551 9   
12552 3   
12553 1   
12554 4   
12555 3   
12556 2   
12557 7   
12558 7   
12559 2   
12560 3   
12561 1   
12562 6   
12563 5   
12564 2   
12565 8   
12566 70  
12567 6   
12568 6   
12569 75  
12570 5   
12571 9   
12572 1   
12573 9   
12574 90  
12575 5   
12576 10  
12577 4   
12578 80  
12579 8   
12580 5   
12581 6   
12582 10  
12583 5   
12584 56  
12585 7   
12586 8   
12587 69  
12588 3   
12589 9   
12590 2   
12591 3   
12592 10  
12593 4   
12594 3   
12595 56  
12596 6   
12597 89  
12598 7   
12599 4   
12600 83  
12601 61  
12602 4   
12603 9   
12604 94  
12605 55  
12606 5   
12607 1   
12608 10  
12609 90  
12610 6   
12611 10  
12612 10  
12613 6   
12614 3   
12615 6   
12616 4   
12617 5   
12618 99  
12619 10  
12620 10  
12621 3   
12622 4   
12623 9   
12624 9   
12625 64  
12626 2   
12627 8   
12628 10  
12629 10  
12630 5   
12631 10  
12632 54  
12633 6   
12634 7   
12635 4   
12636 2   
12637 6   
12638 9   
12639 7   
12640 84  
12641 6   
12642 60  
12643 1   
12644 10  
12645 3   
12646 4   
12647 3   
12648 7   
12649 72  
12650 2   
12651 4   
12652 7   
12653 1   
12654 60  
12655 6   
12656 8   
12657 5   
12658 60  
12659 6   
12660 9   
12661 1   
12662 1   
12663 8   
12664 6   
12665 86  
12666 9   
12667 65  
12668 9   
12669 10  
12670 10  
12671 5   
12672 10  
12673 55  
12674 8   
12675 1   
12676 74  
12677 80  
12678 3   
12679 5   
12680 3   
12681 55  
12682 2   
12683 1   
12684 3   
12685 9   
12686 8   
12687 8   
12688 9   
12689 8   
12690 52  
12691 94  
12692 2   
12693 2   
12694 7   
12695 2   
12696 70  
12697 3   
12698 6   
12699 7   
12700 8   
12701 9   
12702 3   
12703 3   
12704 94  
12705 2   
12706 84  
12707 10  
12708 67  
12709 9   
12710 4   
12711 9   
12712 9   
12713 5   
12714 83  
12715 1   
12716 3   
12717 94  
12718 2   
12719 8   
12720 4   
12721 9   
12722 8   
12723 1   
12724 7   
12725 4   
12726 74  
12727 8   
12728 95  
12729 7   
12730 5   
12731 5   
12732 9   
12733 10  
12734 5   
12735 3   
12736 3   
12737 4   
12738 82  
12739 9   
12740 5   
12741 3   
12742 75  
12743 7   
12744 2   
12745 57  
12746 84  
12747 81  
12748 7   
12749 9   
12750 8   
12751 1   
12752 5   
12753 2   
12754 4   
12755 8   
12756 9   
12757 3   
12758 1   
12759 10  
12760 67  
12761 3   
12762 6   
12763 6   
12764 69  
12765 8   
12766 6   
12767 10  
12768 71  
12769 9   
12770 8   
12771 4   
12772 7   
12773 88  
12774 7   
12775 10  
12776 3   
12777 4   
12778 70  
12779 7   
12780 4   
12781 8   
12782 2   
12783 2   
12784 4   
12785 60  
12786 59  
12787 56  
12788 10  
12789 80  
12790 99  
12791 9   
12792 8   
12793 5   
12794 3   
12795 97  
12796 10  
12797 10  
12798 3   
12799 4   
12800 9   
12801 1   
12802 80  
12803 9   
12804 90  
12805 7   
12806 75  
12807 7   
12808 3   
12809 8   
12810 1   
12811 1   
12812 87  
12813 2   
12814 2   
12815 2   
12816 81  
12817 5   
12818 7   
12819 92  
12820 7   
12821 7   
12822 9   
12823 8   
12824 2   
12825 7   
12826 51  
12827 79  
12828 6   
12829 6   
12830 8   
12831 4   
12832 9   
12833 9   
12834 2   
12835 60  
12836 5   
12837 1   
12838 10  
12839 1   
12840 93  
12841 80  
12842 8   
12843 71  
12844 51  
12845 10  
12846 3   
12847 5   
12848 1   
12849 8   
12850 2   
12851 68  
12852 7   
12853 1   
12854 72  
12855 8   
12856 7   
12857 4   
12858 7   
12859 7   
12860 68  
12861 10  
12862 64  
12863 2   
12864 3   
12865 88  
12866 4   
12867 4   
12868 2   
12869 6   
12870 66  
12871 1   
12872 1   
12873 6   
12874 4   
12875 3   
12876 78  
12877 7   
12878 4   
12879 1   
12880 62  
12881 6   
12882 6   
12883 3   
12884 2   
12885 2   
12886 6   
12887 4   
12888 9   
12889 92  
12890 1   
12891 7   
12892 8   
12893 6   
12894 6   
12895 4   
12896 2   
12897 4   
12898 4   
12899 66  
12900 5   
12901 9   
12902 9   
12903 9   
12904 2   
12905 57  
12906 7   
12907 1   
12908 2   
12909 10  
12910 2   
12911 5   
12912 10  
12913 88  
12914 6   
12915 64  
12916 10  
12917 8   
12918 89  
12919 2   
12920 6   
12921 8   
12922 2   
12923 92  
12924 2   
12925 2   
12926 6   
12927 6   
12928 1   
12929 59  
12930 7   
12931 4   
12932 5   
12933 8   
12934 5   
12935 66  
12936 4   
12937 2   
12938 3   
12939 3   
12940 5   
12941 72  
12942 77  
12943 4   
12944 8   
12945 8   
12946 7   
12947 5   
12948 10  
12949 63  
12950 7   
12951 6   
12952 8   
12953 2   
12954 76  
12955 2   
12956 2   
12957 3   
12958 85  
12959 6   
12960 1   
12961 2   
12962 10  
12963 9   
12964 8   
12965 9   
12966 2   
12967 4   
12968 3   
12969 9   
12970 10  
12971 10  
12972 5   
12973 8   
12974 7   
12975 3   
12976 6   
12977 10  
12978 10  
12979 2   
12980 8   
12981 2   
12982 97  
12983 1   
12984 77  
12985 10  
12986 6   
12987 8   
12988 10  
12989 4   
12990 53  
12991 7   
12992 10  
12993 91  
12994 3   
12995 73  
12996 2   
12997 9   
12998 5   
12999 7   
13000 5   
13001 54  
13002 9   
13003 4   
13004 5   
13005 54  
13006 6   
13007 7   
13008 6   
13009 9   
13010 9   
13011 8   
13012 2   
13013 2   
13014 2   
13015 7   
13016 7   
13017 4   
13018 10  
13019 9   
13020 76  
13021 3   
13022 8   
13023 9   
13024 7   
13025 8   
13026 74  
13027 9   
13028 70  
13029 10  
13030 4   
13031 6   
13032 1   
13033 79  
13034 9   
13035 7   
13036 6   
13037 6   
13038 10  
13039 1   
13040 8   
13041 8   
13042 1   
13043 6   
13044 6   
13045 4   
13046 72  
13047 10  
13048 1   
13049 69  
13050 8   
13051 4   
13052 8   
13053 66  
13054 10  
13055 10  
13056 4   
13057 8   
13058 5   
13059 3   
13060 9   
13061 86  
13062 93  
13063 76  
13064 6   
13065 3   
13066 9   
13067 9   
13068 9   
13069 4   
13070 6   
13071 2   
13072 1   
13073 4   
13074 5   
13075 2   
13076 8   
13077 4   
13078 74  
13079 9   
13080 2   
13081 10  
13082 8   
13083 10  
13084 81  
13085 3   
13086 10  
13087 6   
13088 56  
13089 5   
13090 10  
13091 85  
13092 6   
13093 52  
13094 9   
13095 3   
13096 2   
13097 1   
13098 97  
13099 60  
13100 1   
13101 5   
13102 8   
13103 4   
13104 3   
13105 4   
13106 8   
13107 7   
13108 5   
13109 2   
13110 8   
13111 64  
13112 10  
13113 2   
13114 1   
13115 10  
13116 3   
13117 7   
13118 2   
13119 10  
13120 6   
13121 1   
13122 6   
13123 4   
13124 3   
13125 83  
13126 2   
13127 8   
13128 6   
13129 7   
13130 7   
13131 9   
13132 4   
13133 93  
13134 3   
13135 74  
13136 6   
13137 7   
13138 1   
13139 7   
13140 5   
13141 2   
13142 3   
13143 81  
13144 99  
13145 9   
13146 5   
13147 3   
13148 66  
13149 7   
13150 6   
13151 8   
13152 78  
13153 9   
13154 7   
13155 8   
13156 5   
13157 84  
13158 1   
13159 2   
13160 4   
13161 1   
13162 51  
13163 6   
13164 1   
13165 6   
13166 5   
13167 8   
13168 7   
13169 5   
13170 56  
13171 57  
13172 58  
13173 10  
13174 10  
13175 5   
13176 8   
13177 2   
13178 3   
13179 9   
13180 3   
13181 1   
13182 10  
13183 6   
13184 6   
13185 82  
13186 2   
13187 1   
13188 8   
13189 8   
13190 4   
13191 1   
13192 4   
13193 10  
13194 2   
13195 5   
13196 1   
13197 4   
13198 10  
13199 8   
13200 85  
13201 4   
13202 85  
13203 3   
13204 10  
13205 95  
13206 6   
13207 6   
13208 5   
13209 7   
13210 7   
13211 10  
13212 7   
13213 6   
13214 7   
13215 6   
13216 3   
13217 7   
13218 4   
13219 1   
13220 2   
13221 6   
13222 2   
13223 3   
13224 2   
13225 67  
13226 10  
13227 2   
13228 3   
13229 2   
13230 7   
13231 10  
13232 1   
13233 4   
13234 9   
13235 9   
13236 6   
13237 9   
13238 2   
13239 7   
13240 95  
13241 2   
13242 2   
13243 9   
13244 70  
13245 10  
13246 6   
13247 9   
13248 7   
13249 8   
13250 3   
13251 6   
13252 3   
13253 8   
13254 3   
13255 5   
13256 5   
13257 3   
13258 3   
13259 10  
13260 9   
13261 10  
13262 7   
13263 7   
13264 9   
13265 4   
13266 94  
13267 97  
13268 3   
13269 72  
13270 70  
13271 9   
13272 4   
13273 94  
13274 5   
13275 9   
13276 6   
13277 3   
13278 2   
13279 85  
13280 1   
13281 6   
13282 6   
13283 10  
13284 8   
13285 10  
13286 1   
13287 2   
13288 61  
13289 4   
13290 2   
13291 64  
13292 6   
13293 60  
13294 92  
13295 6   
13296 1   
13297 5   
13298 69  
13299 1   
13300 3   
13301 69  
13302 9   
13303 7   
13304 69  
13305 7   
13306 71  
13307 2   
13308 3   
13309 86  
13310 1   
13311 10  
13312 7   
13313 58  
13314 9   
13315 3   
13316 10  
13317 4   
13318 5   
13319 2   
13320 9   
13321 4   
13322 2   
13323 9   
13324 9   
13325 77  
13326 4   
13327 6   
13328 7   
13329 7   
13330 2   
13331 3   
13332 58  
13333 5   
13334 2   
13335 3   
13336 3   
13337 3   
13338 10  
13339 10  
13340 7   
13341 4   
13342 7   
13343 4   
13344 6   
13345 10  
13346 6   
13347 7   
13348 10  
13349 10  
13350 3   
13351 6   
13352 8   
13353 3   
13354 3   
13355 10  
13356 8   
13357 99  
13358 9   
13359 4   
13360 9   
13361 8   
13362 4   
13363 1   
13364 6   
13365 6   
13366 85  
13367 5   
13368 1   
13369 100 
13370 3   
13371 1   
13372 79  
13373 6   
13374 1   
13375 1   
13376 76  
13377 1   
13378 4   
13379 9   
13380 4   
13381 1   
13382 3   
13383 10  
13384 1   
13385 1   
13386 8   
13387 5   
13388 8   
13389 6   
13390 10  
13391 1   
13392 6   
13393 3   
13394 3   
13395 5   
13396 1   
13397 88  
13398 98  
13399 100 
13400 10  
13401 1   
13402 4   
13403 9   
13404 6   
13405 4   
13406 10  
13407 6   
13408 2   
13409 9   
13410 2   
13411 6   
13412 10  
13413 2   
13414 3   
13415 1   
13416 4   
13417 9   
13418 9   
13419 8   
13420 6   
13421 71  
13422 2   
13423 86  
13424 1   
13425 7   
13426 10  
13427 2   
13428 4   
13429 5   
13430 7   
13431 10  
13432 4   
13433 70  
13434 2   
13435 8   
13436 66  
13437 66  
13438 1   
13439 3   
13440 3   
13441 2   
13442 9   
13443 8   
13444 3   
13445 56  
13446 1   
13447 5   
13448 8   
13449 9   
13450 8   
13451 53  
13452 89  
13453 2   
13454 9   
13455 3   
13456 64  
13457 3   
13458 9   
13459 7   
13460 9   
13461 2   
13462 93  
13463 1   
13464 5   
13465 10  
13466 2   
13467 4   
13468 7   
13469 3   
13470 4   
13471 7   
13472 2   
13473 6   
13474 10  
13475 4   
13476 10  
13477 80  
13478 61  
13479 2   
13480 10  
13481 7   
13482 51  
13483 3   
13484 7   
13485 8   
13486 4   
13487 9   
13488 59  
13489 9   
13490 5   
13491 9   
13492 7   
13493 8   
13494 4   
13495 10  
13496 3   
13497 68  
13498 1   
13499 8   
13500 8   
13501 59  
13502 10  
13503 60  
13504 79  
13505 5   
13506 1   
13507 3   
13508 7   
13509 57  
13510 2   
13511 1   
13512 3   
13513 10  
13514 3   
13515 6   
13516 76  
13517 8   
13518 10  
13519 67  
13520 10  
13521 62  
13522 3   
13523 2   
13524 8   
13525 5   
13526 8   
13527 10  
13528 10  
13529 10  
13530 8   
13531 2   
13532 63  
13533 5   
13534 8   
13535 9   
13536 63  
13537 88  
13538 73  
13539 3   
13540 7   
13541 7   
13542 100 
13543 69  
13544 9   
13545 3   
13546 2   
13547 10  
13548 84  
13549 5   
13550 6   
13551 3   
13552 6   
13553 7   
13554 79  
13555 3   
13556 6   
13557 4   
13558 6   
13559 4   
13560 2   
13561 95  
13562 4   
13563 6   
13564 4   
13565 7   
13566 5   
13567 7   
13568 6   
13569 6   
13570 95  
13571 2   
13572 5   
13573 7   
13574 7   
13575 1   
13576 4   
13577 4   
13578 58  
13579 7   
13580 3   
13581 1   
13582 4   
13583 8   
13584 9   
13585 9   
13586 86  
13587 2   
13588 3   
13589 84  
13590 6   
13591 4   
13592 5   
13593 2   
13594 7   
13595 1   
13596 3   
13597 2   
13598 62  
13599 3   
13600 9   
13601 4   
13602 7   
13603 3   
13604 4   
13605 58  
13606 1   
13607 7   
13608 55  
13609 8   
13610 3   
13611 95  
13612 7   
13613 57  
13614 5   
13615 4   
13616 4   
13617 4   
13618 6   
13619 2   
13620 8   
13621 10  
13622 6   
13623 4   
13624 3   
13625 1   
13626 1   
13627 10  
13628 8   
13629 1   
13630 5   
13631 1   
13632 1   
13633 65  
13634 2   
13635 7   
13636 3   
13637 95  
13638 5   
13639 5   
13640 5   
13641 6   
13642 5   
13643 8   
13644 9   
13645 7   
13646 55  
13647 3   
13648 1   
13649 9   
13650 3   
13651 10  
13652 6   
13653 2   
13654 1   
13655 2   
13656 2   
13657 2   
13658 1   
13659 10  
13660 4   
13661 53  
13662 8   
13663 5   
13664 9   
13665 3   
13666 7   
13667 6   
13668 6   
13669 2   
13670 62  
13671 64  
13672 85  
13673 2   
13674 3   
13675 1   
13676 3   
13677 3   
13678 5   
13679 6   
13680 10  
13681 7   
13682 10  
13683 69  
13684 6   
13685 7   
13686 70  
13687 2   
13688 62  
13689 4   
13690 5   
13691 1   
13692 2   
13693 4   
13694 7   
13695 3   
13696 10  
13697 2   
13698 3   
13699 76  
13700 66  
13701 3   
13702 1   
13703 5   
13704 89  
13705 9   
13706 4   
13707 2   
13708 1   
13709 9   
13710 3   
13711 2   
13712 1   
13713 59  
13714 4   
13715 6   
13716 6   
13717 2   
13718 3   
13719 5   
13720 8   
13721 68  
13722 5   
13723 9   
13724 9   
13725 100 
13726 62  
13727 2   
13728 84  
13729 9   
13730 3   
13731 54  
13732 10  
13733 5   
13734 2   
13735 9   
13736 8   
13737 9   
13738 87  
13739 4   
13740 4   
13741 75  
13742 10  
13743 4   
13744 6   
13745 1   
13746 9   
13747 3   
13748 78  
13749 5   
13750 1   
13751 1   
13752 7   
13753 2   
13754 5   
13755 4   
13756 3   
13757 3   
13758 55  
13759 1   
13760 6   
13761 78  
13762 5   
13763 3   
13764 90  
13765 8   
13766 4   
13767 82  
13768 9   
13769 2   
13770 4   
13771 5   
13772 8   
13773 4   
13774 5   
13775 7   
13776 10  
13777 4   
13778 99  
13779 8   
13780 1   
13781 5   
13782 2   
13783 60  
13784 52  
13785 9   
13786 63  
13787 77  
13788 52  
13789 85  
13790 3   
13791 8   
13792 1   
13793 70  
13794 9   
13795 52  
13796 92  
13797 5   
13798 9   
13799 9   
13800 96  
13801 1   
13802 8   
13803 2   
13804 65  
13805 3   
13806 10  
13807 10  
13808 2   
13809 65  
13810 72  
13811 3   
13812 6   
13813 2   
13814 5   
13815 92  
13816 94  
13817 3   
13818 92  
13819 1   
13820 5   
13821 4   
13822 7   
13823 4   
13824 74  
13825 7   
13826 6   
13827 5   
13828 83  
13829 84  
13830 61  
13831 62  
13832 6   
13833 5   
13834 83  
13835 94  
13836 3   
13837 99  
13838 97  
13839 3   
13840 65  
13841 3   
13842 92  
13843 7   
13844 6   
13845 3   
13846 7   
13847 5   
13848 9   
13849 5   
13850 3   
13851 85  
13852 10  
13853 2   
13854 10  
13855 4   
13856 2   
13857 4   
13858 4   
13859 10  
13860 8   
13861 7   
13862 5   
13863 3   
13864 6   
13865 9   
13866 4   
13867 8   
13868 8   
13869 8   
13870 10  
13871 3   
13872 7   
13873 8   
13874 6   
13875 1   
13876 78  
13877 8   
13878 10  
13879 9   
13880 92  
13881 6   
13882 2   
13883 76  
13884 6   
13885 3   
13886 5   
13887 50  
13888 5   
13889 2   
13890 54  
13891 5   
13892 6   
13893 2   
13894 6   
13895 74  
13896 2   
13897 5   
13898 4   
13899 70  
13900 4   
13901 3   
13902 69  
13903 9   
13904 4   
13905 5   
13906 8   
13907 10  
13908 8   
13909 5   
13910 88  
13911 3   
13912 7   
13913 3   
13914 2   
13915 6   
13916 3   
13917 4   
13918 94  
13919 4   
13920 10  
13921 96  
13922 53  
13923 4   
13924 7   
13925 1   
13926 5   
13927 1   
13928 6   
13929 53  
13930 2   
13931 7   
13932 4   
13933 5   
13934 3   
13935 10  
13936 6   
13937 84  
13938 3   
13939 4   
13940 9   
13941 8   
13942 5   
13943 2   
13944 7   
13945 4   
13946 9   
13947 9   
13948 3   
13949 1   
13950 10  
13951 3   
13952 5   
13953 10  
13954 6   
13955 10  
13956 76  
13957 3   
13958 56  
13959 88  
13960 2   
13961 5   
13962 58  
13963 2   
13964 1   
13965 3   
13966 1   
13967 92  
13968 3   
13969 9   
13970 4   
13971 3   
13972 9   
13973 2   
13974 84  
13975 7   
13976 82  
13977 8   
13978 6   
13979 2   
13980 51  
13981 4   
13982 2   
13983 9   
13984 4   
13985 3   
13986 1   
13987 8   
13988 4   
13989 52  
13990 5   
13991 4   
13992 100 
13993 1   
13994 1   
13995 4   
13996 2   
13997 10  
13998 72  
13999 2   
14000 9   
14001 4   
14002 1   
14003 99  
14004 4   
14005 10  
14006 2   
14007 7   
14008 2   
14009 5   
14010 1   
14011 74  
14012 3   
14013 6   
14014 2   
14015 1   
14016 9   
14017 6   
14018 5   
14019 1   
14020 2   
14021 10  
14022 10  
14023 9   
14024 1   
14025 7   
14026 8   
14027 1   
14028 5   
14029 6   
14030 9   
14031 8   
14032 3   
14033 8   
14034 5   
14035 86  
14036 5   
14037 4   
14038 4   
14039 9   
14040 8   
14041 6   
14042 6   
14043 50  
14044 9   
14045 4   
14046 8   
14047 6   
14048 10  
14049 3   
14050 64  
14051 64  
14052 9   
14053 3   
14054 9   
14055 9   
14056 3   
14057 3   
14058 2   
14059 10  
14060 5   
14061 1   
14062 1   
14063 3   
14064 8   
14065 6   
14066 6   
14067 4   
14068 1   
14069 96  
14070 66  
14071 58  
14072 10  
14073 6   
14074 8   
14075 4   
14076 1   
14077 10  
14078 9   
14079 3   
14080 8   
14081 10  
14082 1   
14083 4   
14084 8   
14085 2   
14086 10  
14087 4   
14088 57  
14089 6   
14090 76  
14091 3   
14092 95  
14093 5   
14094 77  
14095 9   
14096 6   
14097 7   
14098 88  
14099 9   
14100 5   
14101 2   
14102 9   
14103 4   
14104 2   
14105 2   
14106 5   
14107 7   
14108 4   
14109 81  
14110 2   
14111 4   
14112 5   
14113 71  
14114 4   
14115 4   
14116 88  
14117 7   
14118 7   
14119 50  
14120 65  
14121 1   
14122 5   
14123 4   
14124 52  
14125 87  
14126 9   
14127 76  
14128 1   
14129 96  
14130 3   
14131 73  
14132 7   
14133 8   
14134 9   
14135 99  
14136 5   
14137 9   
14138 9   
14139 2   
14140 64  
14141 3   
14142 74  
14143 7   
14144 6   
14145 2   
14146 6   
14147 87  
14148 8   
14149 1   
14150 6   
14151 9   
14152 8   
14153 6   
14154 2   
14155 1   
14156 10  
14157 8   
14158 9   
14159 9   
14160 8   
14161 100 
14162 77  
14163 4   
14164 5   
14165 7   
14166 6   
14167 4   
14168 6   
14169 4   
14170 2   
14171 7   
14172 9   
14173 86  
14174 1   
14175 7   
14176 74  
14177 10  
14178 1   
14179 9   
14180 2   
14181 9   
14182 3   
14183 5   
14184 5   
14185 1   
14186 70  
14187 3   
14188 7   
14189 3   
14190 7   
14191 10  
14192 2   
14193 8   
14194 3   
14195 8   
14196 8   
14197 9   
14198 5   
14199 3   
14200 95  
14201 8   
14202 2   
14203 6   
14204 4   
14205 7   
14206 9   
14207 8   
14208 6   
14209 10  
14210 10  
14211 3   
14212 10  
14213 78  
14214 2   
14215 6   
14216 2   
14217 98  
14218 6   
14219 2   
14220 7   
14221 8   
14222 9   
14223 9   
14224 9   
14225 8   
14226 2   
14227 3   
14228 10  
14229 4   
14230 84  
14231 10  
14232 10  
14233 10  
14234 76  
14235 9   
14236 5   
14237 2   
14238 5   
14239 70  
14240 6   
14241 8   
14242 3   
14243 6   
14244 77  
14245 4   
14246 8   
14247 9   
14248 85  
14249 71  
14250 1   
14251 9   
14252 3   
14253 66  
14254 4   
14255 5   
14256 95  
14257 5   
14258 4   
14259 2   
14260 6   
14261 1   
14262 7   
14263 6   
14264 4   
14265 3   
14266 8   
14267 1   
14268 2   
14269 4   
14270 1   
14271 64  
14272 5   
14273 10  
14274 81  
14275 5   
14276 5   
14277 7   
14278 2   
14279 1   
14280 7   
14281 9   
14282 51  
14283 75  
14284 8   
14285 1   
14286 3   
14287 3   
14288 1   
14289 3   
14290 5   
14291 4   
14292 1   
14293 10  
14294 5   
14295 1   
14296 62  
14297 2   
14298 88  
14299 3   
14300 10  
14301 55  
14302 6   
14303 10  
14304 9   
14305 4   
14306 99  
14307 8   
14308 64  
14309 3   
14310 9   
14311 4   
14312 5   
14313 8   
14314 7   
14315 80  
14316 5   
14317 9   
14318 2   
14319 6   
14320 8   
14321 1   
14322 5   
14323 10  
14324 10  
14325 3   
14326 57  
14327 9   
14328 10  
14329 4   
14330 9   
14331 5   
14332 1   
14333 3   
14334 2   
14335 2   
14336 10  
14337 84  
14338 4   
14339 3   
14340 10  
14341 2   
14342 5   
14343 1   
14344 58  
14345 93  
14346 7   
14347 76  
14348 2   
14349 4   
14350 4   
14351 9   
14352 4   
14353 9   
14354 6   
14355 3   
14356 5   
14357 1   
14358 5   
14359 5   
14360 10  
14361 4   
14362 10  
14363 7   
14364 8   
14365 57  
14366 3   
14367 4   
14368 5   
14369 1   
14370 7   
14371 10  
14372 9   
14373 5   
14374 4   
14375 1   
14376 6   
14377 54  
14378 8   
14379 10  
14380 10  
14381 88  
14382 4   
14383 3   
14384 9   
14385 53  
14386 3   
14387 2   
14388 5   
14389 4   
14390 7   
14391 9   
14392 75  
14393 2   
14394 6   
14395 7   
14396 9   
14397 6   
14398 10  
14399 2   
14400 6   
14401 3   
14402 7   
14403 4   
14404 10  
14405 4   
14406 10  
14407 86  
14408 3   
14409 59  
14410 10  
14411 9   
14412 3   
14413 80  
14414 3   
14415 75  
14416 6   
14417 53  
14418 60  
14419 8   
14420 1   
14421 4   
14422 75  
14423 51  
14424 1   
14425 83  
14426 5   
14427 1   
14428 9   
14429 2   
14430 8   
14431 1   
14432 1   
14433 7   
14434 5   
14435 7   
14436 1   
14437 9   
14438 9   
14439 3   
14440 7   
14441 9   
14442 53  
14443 67  
14444 59  
14445 9   
14446 1   
14447 2   
14448 90  
14449 7   
14450 9   
14451 6   
14452 4   
14453 7   
14454 1   
14455 8   
14456 1   
14457 3   
14458 7   
14459 10  
14460 4   
14461 51  
14462 6   
14463 10  
14464 7   
14465 63  
14466 97  
14467 1   
14468 5   
14469 4   
14470 6   
14471 7   
14472 3   
14473 1   
14474 7   
14475 5   
14476 81  
14477 8   
14478 7   
14479 5   
14480 10  
14481 9   
14482 1   
14483 8   
14484 10  
14485 9   
14486 7   
14487 6   
14488 3   
14489 71  
14490 2   
14491 3   
14492 9   
14493 3   
14494 4   
14495 10  
14496 72  
14497 4   
14498 97  
14499 5   
14500 6   
14501 56  
14502 4   
14503 6   
14504 98  
14505 1   
14506 1   
14507 5   
14508 7   
14509 5   
14510 8   
14511 5   
14512 3   
14513 63  
14514 7   
14515 55  
14516 85  
14517 3   
14518 7   
14519 60  
14520 10  
14521 3   
14522 7   
14523 3   
14524 2   
14525 5   
14526 4   
14527 8   
14528 7   
14529 85  
14530 6   
14531 2   
14532 4   
14533 6   
14534 7   
14535 8   
14536 7   
14537 2   
14538 9   
14539 1   
14540 10  
14541 4   
14542 10  
14543 7   
14544 7   
14545 5   
14546 10  
14547 2   
14548 1   
14549 1   
14550 8   
14551 6   
14552 5   
14553 9   
14554 9   
14555 3   
14556 10  
14557 5   
14558 8   
14559 50  
14560 4   
14561 7   
14562 4   
14563 5   
14564 8   
14565 2   
14566 63  
14567 10  
14568 7   
14569 3   
14570 5   
14571 6   
14572 4   
14573 9   
14574 7   
14575 3   
14576 7   
14577 9   
14578 4   
14579 67  
14580 58  
14581 1   
14582 8   
14583 6   
14584 100 
14585 88  
14586 9   
14587 6   
14588 2   
14589 4   
14590 8   
14591 7   
14592 62  
14593 10  
14594 9   
14595 84  
14596 9   
14597 2   
14598 1   
14599 6   
14600 3   
14601 8   
14602 1   
14603 7   
14604 4   
14605 7   
14606 4   
14607 8   
14608 5   
14609 8   
14610 6   
14611 7   
14612 4   
14613 4   
14614 9   
14615 5   
14616 1   
14617 1   
14618 7   
14619 5   
14620 93  
14621 10  
14622 71  
14623 6   
14624 5   
14625 8   
14626 90  
14627 1   
14628 3   
14629 6   
14630 2   
14631 8   
14632 1   
14633 7   
14634 2   
14635 4   
14636 94  
14637 4   
14638 7   
14639 6   
14640 6   
14641 6   
14642 10  
14643 6   
14644 64  
14645 8   
14646 5   
14647 6   
14648 5   
14649 4   
14650 3   
14651 1   
14652 10  
14653 10  
14654 8   
14655 6   
14656 70  
14657 3   
14658 4   
14659 1   
14660 1   
14661 2   
14662 4   
14663 4   
14664 10  
14665 5   
14666 93  
14667 3   
14668 9   
14669 8   
14670 9   
14671 9   
14672 10  
14673 55  
14674 9   
14675 82  
14676 4   
14677 6   
14678 7   
14679 1   
14680 7   
14681 7   
14682 7   
14683 6   
14684 9   
14685 2   
14686 8   
14687 92  
14688 9   
14689 9   
14690 57  
14691 3   
14692 2   
14693 1   
14694 6   
14695 1   
14696 10  
14697 9   
14698 1   
14699 4   
14700 7   
14701 8   
14702 4   
14703 4   
14704 10  
14705 7   
14706 9   
14707 7   
14708 7   
14709 10  
14710 10  
14711 55  
14712 9   
14713 59  
14714 2   
14715 9   
14716 6   
14717 9   
14718 1   
14719 53  
14720 2   
14721 91  
14722 1   
14723 5   
14724 73  
14725 7   
14726 9   
14727 10  
14728 1   
14729 66  
14730 2   
14731 2   
14732 3   
14733 4   
14734 7   
14735 3   
14736 54  
14737 1   
14738 8   
14739 8   
14740 2   
14741 1   
14742 2   
14743 3   
14744 3   
14745 3   
14746 80  
14747 88  
14748 62  
14749 1   
14750 2   
14751 81  
14752 7   
14753 9   
14754 2   
14755 10  
14756 7   
14757 4   
14758 2   
14759 94  
14760 10  
14761 5   
14762 87  
14763 55  
14764 3   
14765 8   
14766 100 
14767 1   
14768 8   
14769 4   
14770 4   
14771 6   
14772 64  
14773 1   
14774 68  
14775 50  
14776 9   
14777 2   
14778 4   
14779 7   
14780 10  
14781 2   
14782 4   
14783 96  
14784 56  
14785 9   
14786 2   
14787 7   
14788 3   
14789 2   
14790 9   
14791 8   
14792 6   
14793 4   
14794 8   
14795 3   
14796 3   
14797 99  
14798 5   
14799 54  
14800 8   
14801 4   
14802 9   
14803 3   
14804 61  
14805 8   
14806 69  
14807 100 
14808 3   
14809 6   
14810 1   
14811 5   
14812 5   
14813 4   
14814 6   
14815 5   
14816 9   
14817 86  
14818 3   
14819 7   
14820 8   
14821 4   
14822 58  
14823 2   
14824 97  
14825 7   
14826 8   
14827 2   
14828 8   
14829 5   
14830 10  
14831 9   
14832 92  
14833 5   
14834 87  
14835 1   
14836 8   
14837 4   
14838 53  
14839 1   
14840 3   
14841 10  
14842 4   
14843 7   
14844 5   
14845 8   
14846 4   
14847 7   
14848 6   
14849 8   
14850 1   
14851 7   
14852 6   
14853 53  
14854 8   
14855 7   
14856 10  
14857 4   
14858 5   
14859 2   
14860 69  
14861 62  
14862 9   
14863 7   
14864 87  
14865 2   
14866 3   
14867 1   
14868 5   
14869 64  
14870 10  
14871 9   
14872 3   
14873 8   
14874 4   
14875 6   
14876 2   
14877 4   
14878 60  
14879 5   
14880 9   
14881 90  
14882 96  
14883 9   
14884 52  
14885 1   
14886 62  
14887 4   
14888 1   
14889 89  
14890 68  
14891 2   
14892 3   
14893 10  
14894 6   
14895 3   
14896 10  
14897 2   
14898 9   
14899 8   
14900 9   
14901 3   
14902 2   
14903 1   
14904 6   
14905 82  
14906 9   
14907 2   
14908 5   
14909 85  
14910 10  
14911 8   
14912 4   
14913 99  
14914 5   
14915 10  
14916 6   
14917 5   
14918 9   
14919 7   
14920 1   
14921 10  
14922 2   
14923 1   
14924 10  
14925 96  
14926 5   
14927 3   
14928 63  
14929 3   
14930 1   
14931 5   
14932 10  
14933 6   
14934 2   
14935 8   
14936 9   
14937 10  
14938 80  
14939 6   
14940 1   
14941 97  
14942 88  
14943 2   
14944 8   
14945 6   
14946 82  
14947 7   
14948 63  
14949 2   
14950 7   
14951 6   
14952 5   
14953 4   
14954 92  
14955 10  
14956 8   
14957 2   
14958 3   
14959 4   
14960 85  
14961 8   
14962 5   
14963 80  
14964 5   
14965 5   
14966 3   
14967 71  
14968 8   
14969 76  
14970 8   
14971 2   
14972 1   
14973 82  
14974 7   
14975 8   
14976 3   
14977 8   
14978 6   
14979 59  
14980 8   
14981 5   
14982 8   
14983 1   
14984 6   
14985 3   
14986 2   
14987 10  
14988 9   
14989 10  
14990 5   
14991 2   
14992 8   
14993 1   
14994 88  
14995 10  
14996 83  
14997 2   
14998 2   
14999 5   
15000 9   
15001 1   
15002 9   
15003 3   
15004 10  
15005 2   
15006 2   
15007 6   
15008 7   
15009 3   
15010 6   
15011 1   
15012 5   
15013 10  
15014 6   
15015 2   
15016 7   
15017 7   
15018 8   
15019 2   
15020 4   
15021 5   
15022 8   
15023 66  
15024 5   
15025 94  
15026 3   
15027 1   
15028 3   
15029 9   
15030 7   
15031 77  
15032 7   
15033 10  
15034 8   
15035 91  
15036 10  
15037 6   
15038 6   
15039 5   
15040 7   
15041 2   
15042 3   
15043 1   
15044 10  
15045 6   
15046 10  
15047 5   
15048 4   
15049 2   
15050 68  
15051 2   
15052 6   
15053 67  
15054 10  
15055 3   
15056 2   
15057 8   
15058 3   
15059 10  
15060 10  
15061 74  
15062 64  
15063 1   
15064 6   
15065 5   
15066 52  
15067 10  
15068 7   
15069 1   
15070 8   
15071 1   
15072 4   
15073 7   
15074 65  
15075 3   
15076 58  
15077 6   
15078 9   
15079 3   
15080 57  
15081 99  
15082 51  
15083 1   
15084 84  
15085 2   
15086 2   
15087 6   
15088 2   
15089 86  
15090 8   
15091 9   
15092 59  
15093 4   
15094 9   
15095 1   
15096 5   
15097 83  
15098 4   
15099 8   
15100 6   
15101 6   
15102 92  
15103 7   
15104 2   
15105 77  
15106 6   
15107 8   
15108 8   
15109 2   
15110 7   
15111 2   
15112 58  
15113 7   
15114 10  
15115 51  
15116 7   
15117 51  
15118 10  
15119 8   
15120 5   
15121 2   
15122 1   
15123 2   
15124 1   
15125 2   
15126 67  
15127 3   
15128 2   
15129 4   
15130 1   
15131 3   
15132 5   
15133 61  
15134 1   
15135 9   
15136 4   
15137 6   
15138 4   
15139 71  
15140 3   
15141 5   
15142 1   
15143 1   
15144 1   
15145 6   
15146 3   
15147 5   
15148 8   
15149 2   
15150 62  
15151 6   
15152 2   
15153 3   
15154 9   
15155 4   
15156 76  
15157 2   
15158 10  
15159 10  
15160 6   
15161 8   
15162 2   
15163 9   
15164 1   
15165 8   
15166 6   
15167 10  
15168 83  
15169 1   
15170 2   
15171 89  
15172 98  
15173 5   
15174 4   
15175 7   
15176 83  
15177 10  
15178 1   
15179 10  
15180 65  
15181 10  
15182 9   
15183 52  
15184 1   
15185 4   
15186 6   
15187 1   
15188 3   
15189 3   
15190 87  
15191 10  
15192 97  
15193 6   
15194 2   
15195 2   
15196 3   
15197 7   
15198 5   
15199 8   
15200 9   
15201 61  
15202 10  
15203 56  
15204 8   
15205 63  
15206 2   
15207 76  
15208 1   
15209 53  
15210 2   
15211 10  
15212 6   
15213 7   
15214 4   
15215 2   
15216 66  
15217 56  
15218 5   
15219 6   
15220 57  
15221 7   
15222 6   
15223 9   
15224 9   
15225 55  
15226 10  
15227 80  
15228 8   
15229 3   
15230 4   
15231 9   
15232 71  
15233 2   
15234 9   
15235 4   
15236 4   
15237 9   
15238 2   
15239 56  
15240 56  
15241 57  
15242 78  
15243 2   
15244 3   
15245 56  
15246 3   
15247 1   
15248 10  
15249 8   
15250 8   
15251 6   
15252 75  
15253 100 
15254 6   
15255 8   
15256 8   
15257 5   
15258 63  
15259 3   
15260 6   
15261 2   
15262 1   
15263 3   
15264 1   
15265 10  
15266 5   
15267 81  
15268 4   
15269 7   
15270 2   
15271 61  
15272 82  
15273 1   
15274 1   
15275 7   
15276 56  
15277 1   
15278 6   
15279 86  
15280 1   
15281 10  
15282 10  
15283 9   
15284 7   
15285 9   
15286 2   
15287 6   
15288 8   
15289 10  
15290 3   
15291 7   
15292 5   
15293 9   
15294 1   
15295 10  
15296 5   
15297 54  
15298 8   
15299 3   
15300 3   
15301 89  
15302 1   
15303 4   
15304 10  
15305 5   
15306 5   
15307 1   
15308 2   
15309 55  
15310 68  
15311 58  
15312 4   
15313 86  
15314 65  
15315 9   
15316 8   
15317 10  
15318 6   
15319 7   
15320 1   
15321 7   
15322 10  
15323 60  
15324 9   
15325 3   
15326 2   
15327 4   
15328 1   
15329 97  
15330 6   
15331 8   
15332 3   
15333 10  
15334 69  
15335 6   
15336 8   
15337 8   
15338 1   
15339 85  
15340 9   
15341 1   
15342 8   
15343 62  
15344 10  
15345 5   
15346 2   
15347 89  
15348 7   
15349 7   
15350 5   
15351 7   
15352 10  
15353 1   
15354 2   
15355 10  
15356 6   
15357 9   
15358 8   
15359 1   
15360 3   
15361 7   
15362 1   
15363 3   
15364 8   
15365 84  
15366 9   
15367 80  
15368 100 
15369 65  
15370 6   
15371 3   
15372 9   
15373 10  
15374 3   
15375 4   
15376 9   
15377 6   
15378 5   
15379 8   
15380 9   
15381 9   
15382 3   
15383 1   
15384 6   
15385 4   
15386 1   
15387 10  
15388 75  
15389 9   
15390 9   
15391 10  
15392 73  
15393 5   
15394 6   
15395 8   
15396 2   
15397 5   
15398 3   
15399 3   
15400 75  
15401 4   
15402 9   
15403 6   
15404 4   
15405 93  
15406 90  
15407 8   
15408 1   
15409 8   
15410 6   
15411 10  
15412 9   
15413 4   
15414 5   
15415 6   
15416 71  
15417 4   
15418 3   
15419 3   
15420 57  
15421 10  
15422 10  
15423 5   
15424 5   
15425 6   
15426 1   
15427 2   
15428 6   
15429 60  
15430 3   
15431 97  
15432 3   
15433 1   
15434 4   
15435 1   
15436 1   
15437 10  
15438 83  
15439 10  
15440 4   
15441 7   
15442 2   
15443 6   
15444 9   
15445 10  
15446 4   
15447 5   
15448 9   
15449 73  
15450 1   
15451 6   
15452 5   
15453 5   
15454 1   
15455 3   
15456 8   
15457 3   
15458 3   
15459 4   
15460 7   
15461 5   
15462 8   
15463 9   
15464 2   
15465 10  
15466 2   
15467 10  
15468 5   
15469 10  
15470 2   
15471 6   
15472 4   
15473 86  
15474 91  
15475 4   
15476 3   
15477 51  
15478 81  
15479 10  
15480 70  
15481 2   
15482 3   
15483 78  
15484 8   
15485 10  
15486 87  
15487 1   
15488 7   
15489 3   
15490 1   
15491 10  
15492 5   
15493 10  
15494 8   
15495 99  
15496 7   
15497 6   
15498 9   
15499 9   
15500 7   
15501 61  
15502 94  
15503 84  
15504 3   
15505 9   
15506 10  
15507 4   
15508 2   
15509 9   
15510 85  
15511 3   
15512 5   
15513 10  
15514 1   
15515 5   
15516 56  
15517 10  
15518 4   
15519 5   
15520 3   
15521 4   
15522 76  
15523 10  
15524 85  
15525 8   
15526 3   
15527 3   
15528 9   
15529 9   
15530 2   
15531 3   
15532 2   
15533 4   
15534 2   
15535 1   
15536 6   
15537 78  
15538 5   
15539 10  
15540 6   
15541 76  
15542 2   
15543 66  
15544 9   
15545 2   
15546 97  
15547 64  
15548 2   
15549 5   
15550 99  
15551 4   
15552 4   
15553 7   
15554 1   
15555 10  
15556 6   
15557 7   
15558 61  
15559 3   
15560 4   
15561 3   
15562 8   
15563 7   
15564 85  
15565 9   
15566 1   
15567 4   
15568 6   
15569 52  
15570 61  
15571 7   
15572 7   
15573 7   
15574 6   
15575 4   
15576 2   
15577 7   
15578 63  
15579 4   
15580 5   
15581 60  
15582 4   
15583 6   
15584 4   
15585 8   
15586 1   
15587 10  
15588 6   
15589 87  
15590 74  
15591 9   
15592 6   
15593 54  
15594 6   
15595 8   
15596 2   
15597 89  
15598 4   
15599 4   
15600 3   
15601 9   
15602 5   
15603 8   
15604 2   
15605 7   
15606 6   
15607 3   
15608 5   
15609 7   
15610 10  
15611 8   
15612 96  
15613 2   
15614 9   
15615 92  
15616 3   
15617 10  
15618 9   
15619 66  
15620 9   
15621 97  
15622 7   
15623 9   
15624 9   
15625 58  
15626 7   
15627 4   
15628 85  
15629 4   
15630 10  
15631 3   
15632 5   
15633 2   
15634 96  
15635 7   
15636 9   
15637 6   
15638 2   
15639 6   
15640 1   
15641 9   
15642 5   
15643 3   
15644 2   
15645 4   
15646 5   
15647 3   
15648 10  
15649 8   
15650 9   
15651 2   
15652 5   
15653 3   
15654 4   
15655 10  
15656 7   
15657 4   
15658 8   
15659 8   
15660 10  
15661 5   
15662 2   
15663 10  
15664 8   
15665 67  
15666 64  
15667 3   
15668 2   
15669 6   
15670 6   
15671 2   
15672 6   
15673 4   
15674 8   
15675 3   
15676 1   
15677 8   
15678 8   
15679 4   
15680 74  
15681 6   
15682 6   
15683 4   
15684 51  
15685 1   
15686 7   
15687 4   
15688 9   
15689 4   
15690 5   
15691 9   
15692 79  
15693 4   
15694 6   
15695 56  
15696 2   
15697 8   
15698 66  
15699 93  
15700 3   
15701 2   
15702 77  
15703 4   
15704 4   
15705 2   
15706 10  
15707 100 
15708 6   
15709 90  
15710 2   
15711 79  
15712 6   
15713 4   
15714 99  
15715 7   
15716 74  
15717 2   
15718 10  
15719 8   
15720 9   
15721 1   
15722 3   
15723 1   
15724 10  
15725 7   
15726 9   
15727 3   
15728 3   
15729 100 
15730 8   
15731 5   
15732 100 
15733 57  
15734 2   
15735 1   
15736 2   
15737 7   
15738 8   
15739 5   
15740 4   
15741 6   
15742 10  
15743 9   
15744 7   
15745 6   
15746 1   
15747 7   
15748 10  
15749 69  
15750 59  
15751 8   
15752 78  
15753 8   
15754 8   
15755 4   
15756 6   
15757 10  
15758 7   
15759 5   
15760 4   
15761 4   
15762 2   
15763 10  
15764 4   
15765 57  
15766 1   
15767 7   
15768 51  
15769 9   
15770 92  
15771 2   
15772 3   
15773 9   
15774 81  
15775 7   
15776 6   
15777 4   
15778 6   
15779 4   
15780 4   
15781 1   
15782 3   
15783 8   
15784 4   
15785 56  
15786 3   
15787 4   
15788 4   
15789 9   
15790 6   
15791 5   
15792 8   
15793 10  
15794 4   
15795 10  
15796 8   
15797 8   
15798 5   
15799 6   
15800 74  
15801 1   
15802 2   
15803 8   
15804 100 
15805 8   
15806 5   
15807 79  
15808 4   
15809 3   
15810 5   
15811 2   
15812 10  
15813 1   
15814 9   
15815 99  
15816 2   
15817 10  
15818 6   
15819 9   
15820 2   
15821 5   
15822 10  
15823 1   
15824 4   
15825 3   
15826 3   
15827 1   
15828 100 
15829 68  
15830 7   
15831 3   
15832 8   
15833 88  
15834 7   
15835 76  
15836 9   
15837 4   
15838 1   
15839 86  
15840 55  
15841 8   
15842 2   
15843 82  
15844 4   
15845 8   
15846 3   
15847 6   
15848 63  
15849 6   
15850 6   
15851 1   
15852 3   
15853 6   
15854 8   
15855 90  
15856 1   
15857 10  
15858 63  
15859 7   
15860 7   
15861 50  
15862 3   
15863 2   
15864 4   
15865 2   
15866 93  
15867 7   
15868 8   
15869 8   
15870 4   
15871 10  
15872 7   
15873 10  
15874 3   
15875 2   
15876 7   
15877 3   
15878 7   
15879 10  
15880 74  
15881 4   
15882 80  
15883 7   
15884 2   
15885 3   
15886 5   
15887 8   
15888 3   
15889 7   
15890 5   
15891 6   
15892 10  
15893 91  
15894 51  
15895 1   
15896 7   
15897 6   
15898 76  
15899 1   
15900 3   
15901 6   
15902 5   
15903 2   
15904 5   
15905 8   
15906 9   
15907 7   
15908 87  
15909 10  
15910 10  
15911 67  
15912 9   
15913 2   
15914 8   
15915 5   
15916 2   
15917 5   
15918 4   
15919 9   
15920 3   
15921 1   
15922 84  
15923 7   
15924 6   
15925 63  
15926 8   
15927 7   
15928 8   
15929 1   
15930 9   
15931 6   
15932 10  
15933 50  
15934 6   
15935 8   
15936 81  
15937 2   
15938 6   
15939 86  
15940 9   
15941 6   
15942 7   
15943 60  
15944 10  
15945 8   
15946 6   
15947 9   
15948 1   
15949 73  
15950 3   
15951 3   
15952 5   
15953 57  
15954 5   
15955 10  
15956 4   
15957 2   
15958 6   
15959 61  
15960 7   
15961 63  
15962 67  
15963 9   
15964 1   
15965 8   
15966 1   
15967 3   
15968 9   
15969 5   
15970 97  
15971 6   
15972 8   
15973 4   
15974 93  
15975 1   
15976 1   
15977 75  
15978 50  
15979 8   
15980 10  
15981 6   
15982 9   
15983 4   
15984 1   
15985 65  
15986 8   
15987 8   
15988 5   
15989 97  
15990 3   
15991 3   
15992 3   
15993 3   
15994 3   
15995 8   
15996 1   
15997 2   
15998 2   
15999 72  
16000 6   
16001 3   
16002 9   
16003 1   
16004 7   
16005 1   
16006 5   
16007 3   
16008 1   
16009 5   
16010 1   
16011 9   
16012 59  
16013 4   
16014 5   
16015 58  
16016 5   
16017 8   
16018 10  
16019 1   
16020 67  
16021 8   
16022 1   
16023 53  
16024 2   
16025 8   
16026 8   
16027 5   
16028 2   
16029 9   
16030 10  
16031 73  
16032 70  
16033 9   
16034 1   
16035 67  
16036 9   
16037 9   
16038 6   
16039 2   
16040 88  
16041 10  
16042 3   
16043 10  
16044 72  
16045 5   
16046 1   
16047 7   
16048 5   
16049 7   
16050 3   
16051 8   
16052 7   
16053 10  
16054 9   
16055 10  
16056 6   
16057 57  
16058 7   
16059 10  
16060 71  
16061 6   
16062 8   
16063 75  
16064 55  
16065 3   
16066 8   
16067 2   
16068 3   
16069 6   
16070 9   
16071 10  
16072 7   
16073 3   
16074 70  
16075 2   
16076 64  
16077 9   
16078 100 
16079 9   
16080 6   
16081 3   
16082 2   
16083 69  
16084 53  
16085 4   
16086 6   
16087 3   
16088 10  
16089 10  
16090 9   
16091 6   
16092 94  
16093 7   
16094 7   
16095 1   
16096 3   
16097 7   
16098 3   
16099 7   
16100 5   
16101 93  
16102 75  
16103 5   
16104 4   
16105 7   
16106 7   
16107 10  
16108 7   
16109 8   
16110 9   
16111 10  
16112 10  
16113 3   
16114 8   
16115 2   
16116 2   
16117 2   
16118 9   
16119 93  
16120 5   
16121 5   
16122 10  
16123 10  
16124 7   
16125 72  
16126 10  
16127 3   
16128 10  
16129 4   
16130 10  
16131 91  
16132 7   
16133 8   
16134 70  
16135 10  
16136 8   
16137 9   
16138 9   
16139 65  
16140 7   
16141 8   
16142 7   
16143 3   
16144 8   
16145 82  
16146 9   
16147 6   
16148 99  
16149 4   
16150 100 
16151 8   
16152 77  
16153 7   
16154 4   
16155 1   
16156 8   
16157 2   
16158 5   
16159 10  
16160 4   
16161 5   
16162 8   
16163 8   
16164 6   
16165 6   
16166 10  
16167 6   
16168 1   
16169 9   
16170 68  
16171 1   
16172 7   
16173 3   
16174 10  
16175 2   
16176 2   
16177 2   
16178 6   
16179 1   
16180 6   
16181 5   
16182 5   
16183 76  
16184 64  
16185 10  
16186 59  
16187 5   
16188 7   
16189 8   
16190 3   
16191 59  
16192 1   
16193 1   
16194 4   
16195 7   
16196 64  
16197 1   
16198 2   
16199 5   
16200 64  
16201 72  
16202 6   
16203 6   
16204 52  
16205 1   
16206 2   
16207 10  
16208 3   
16209 7   
16210 3   
16211 6   
16212 72  
16213 9   
16214 7   
16215 9   
16216 4   
16217 7   
16218 7   
16219 94  
16220 7   
16221 3   
16222 79  
16223 1   
16224 9   
16225 54  
16226 7   
16227 3   
16228 6   
16229 83  
16230 4   
16231 7   
16232 9   
16233 3   
16234 10  
16235 9   
16236 3   
16237 10  
16238 86  
16239 3   
16240 5   
16241 5   
16242 3   
16243 58  
16244 5   
16245 9   
16246 5   
16247 5   
16248 4   
16249 10  
16250 1   
16251 9   
16252 3   
16253 64  
16254 6   
16255 2   
16256 89  
16257 9   
16258 8   
16259 2   
16260 7   
16261 97  
16262 1   
16263 2   
16264 6   
16265 1   
16266 7   
16267 2   
16268 8   
16269 5   
16270 10  
16271 9   
16272 5   
16273 2   
16274 61  
16275 3   
16276 3   
16277 8   
16278 10  
16279 6   
16280 8   
16281 9   
16282 8   
16283 7   
16284 58  
16285 8   
16286 9   
16287 7   
16288 1   
16289 7   
16290 4   
16291 6   
16292 4   
16293 10  
16294 2   
16295 1   
16296 6   
16297 1   
16298 7   
16299 2   
16300 7   
16301 2   
16302 10  
16303 4   
16304 1   
16305 3   
16306 6   
16307 6   
16308 7   
16309 8   
16310 9   
16311 8   
16312 2   
16313 5   
16314 6   
16315 4   
16316 7   
16317 2   
16318 8   
16319 56  
16320 3   
16321 72  
16322 8   
16323 2   
16324 73  
16325 3   
16326 4   
16327 3   
16328 7   
16329 4   
16330 8   
16331 8   
16332 7   
16333 5   
16334 3   
16335 7   
16336 8   
16337 2   
16338 7   
16339 3   
16340 3   
16341 10  
16342 7   
16343 6   
16344 9   
16345 6   
16346 10  
16347 51  
16348 1   
16349 9   
16350 7   
16351 1   
16352 10  
16353 3   
16354 4   
16355 1   
16356 10  
16357 9   
16358 54  
16359 78  
16360 5   
16361 8   
16362 84  
16363 53  
16364 9   
16365 7   
16366 10  
16367 7   
16368 53  
16369 3   
16370 2   
16371 6   
16372 3   
16373 10  
16374 6   
16375 4   
16376 86  
16377 8   
16378 8   
16379 4   
16380 4   
16381 6   
16382 4   
16383 7   
16384 9   
16385 78  
16386 7   
16387 2   
16388 5   
16389 6   
16390 5   
16391 6   
16392 1   
16393 2   
16394 1   
16395 8   
16396 4   
16397 77  
16398 6   
16399 56  
16400 9   
16401 81  
16402 1   
16403 2   
16404 69  
16405 6   
16406 6   
16407 78  
16408 1   
16409 9   
16410 2   
16411 7   
16412 1   
16413 4   
16414 7   
16415 10  
16416 60  
16417 10  
16418 4   
16419 1   
16420 3   
16421 3   
16422 1   
16423 65  
16424 8   
16425 5   
16426 69  
16427 53  
16428 10  
16429 9   
16430 6   
16431 9   
16432 9   
16433 8   
16434 1   
16435 90  
16436 9   
16437 6   
16438 96  
16439 61  
16440 8   
16441 6   
16442 4   
16443 3   
16444 1   
16445 8   
16446 2   
16447 5   
16448 8   
16449 78  
16450 3   
16451 9   
16452 3   
16453 9   
16454 8   
16455 1   
16456 4   
16457 2   
16458 9   
16459 9   
16460 59  
16461 6   
16462 1   
16463 10  
16464 1   
16465 9   
16466 88  
16467 59  
16468 2   
16469 4   
16470 8   
16471 5   
16472 6   
16473 1   
16474 2   
16475 95  
16476 6   
16477 1   
16478 77  
16479 8   
16480 4   
16481 4   
16482 3   
16483 90  
16484 5   
16485 6   
16486 10  
16487 7   
16488 99  
16489 66  
16490 8   
16491 9   
16492 1   
16493 9   
16494 1   
16495 10  
16496 9   
16497 3   
16498 69  
16499 66  
16500 7   
16501 50  
16502 5   
16503 3   
16504 9   
16505 10  
16506 95  
16507 10  
16508 4   
16509 1   
16510 5   
16511 5   
16512 10  
16513 3   
16514 4   
16515 75  
16516 10  
16517 7   
16518 3   
16519 1   
16520 7   
16521 6   
16522 61  
16523 6   
16524 7   
16525 7   
16526 4   
16527 5   
16528 2   
16529 6   
16530 6   
16531 8   
16532 6   
16533 5   
16534 5   
16535 7   
16536 7   
16537 10  
16538 10  
16539 5   
16540 1   
16541 4   
16542 56  
16543 1   
16544 50  
16545 6   
16546 8   
16547 6   
16548 5   
16549 60  
16550 8   
16551 1   
16552 82  
16553 5   
16554 8   
16555 10  
16556 2   
16557 1   
16558 64  
16559 4   
16560 9   
16561 9   
16562 2   
16563 8   
16564 10  
16565 4   
16566 74  
16567 8   
16568 2   
16569 9   
16570 73  
16571 2   
16572 10  
16573 83  
16574 9   
16575 9   
16576 1   
16577 9   
16578 8   
16579 9   
16580 8   
16581 3   
16582 80  
16583 5   
16584 6   
16585 10  
16586 9   
16587 3   
16588 67  
16589 9   
16590 1   
16591 8   
16592 92  
16593 10  
16594 6   
16595 65  
16596 9   
16597 9   
16598 3   
16599 10  
16600 67  
16601 3   
16602 1   
16603 8   
16604 5   
16605 7   
16606 57  
16607 1   
16608 7   
16609 65  
16610 7   
16611 4   
16612 7   
16613 2   
16614 9   
16615 8   
16616 1   
16617 77  
16618 63  
16619 8   
16620 3   
16621 3   
16622 2   
16623 8   
16624 1   
16625 4   
16626 7   
16627 2   
16628 2   
16629 2   
16630 53  
16631 73  
16632 1   
16633 1   
16634 2   
16635 8   
16636 10  
16637 3   
16638 9   
16639 3   
16640 8   
16641 92  
16642 8   
16643 84  
16644 53  
16645 95  
16646 7   
16647 86  
16648 87  
16649 91  
16650 7   
16651 82  
16652 9   
16653 2   
16654 6   
16655 1   
16656 8   
16657 2   
16658 3   
16659 68  
16660 4   
16661 5   
16662 10  
16663 4   
16664 89  
16665 6   
16666 2   
16667 2   
16668 4   
16669 7   
16670 6   
16671 2   
16672 4   
16673 5   
16674 5   
16675 7   
16676 4   
16677 1   
16678 59  
16679 10  
16680 4   
16681 9   
16682 4   
16683 7   
16684 3   
16685 2   
16686 9   
16687 5   
16688 7   
16689 50  
16690 8   
16691 7   
16692 2   
16693 85  
16694 10  
16695 8   
16696 1   
16697 78  
16698 9   
16699 2   
16700 1   
16701 64  
16702 10  
16703 6   
16704 63  
16705 9   
16706 8   
16707 10  
16708 10  
16709 3   
16710 4   
16711 3   
16712 5   
16713 4   
16714 1   
16715 99  
16716 3   
16717 10  
16718 5   
16719 1   
16720 70  
16721 10  
16722 8   
16723 5   
16724 65  
16725 3   
16726 8   
16727 5   
16728 6   
16729 2   
16730 3   
16731 4   
16732 5   
16733 1   
16734 6   
16735 4   
16736 1   
16737 3   
16738 8   
16739 9   
16740 55  
16741 7   
16742 73  
16743 2   
16744 9   
16745 1   
16746 9   
16747 2   
16748 5   
16749 7   
16750 9   
16751 3   
16752 87  
16753 7   
16754 6   
16755 1   
16756 8   
16757 2   
16758 66  
16759 3   
16760 2   
16761 55  
16762 62  
16763 4   
16764 5   
16765 6   
16766 8   
16767 6   
16768 6   
16769 6   
16770 1   
16771 5   
16772 9   
16773 64  
16774 3   
16775 9   
16776 8   
16777 8   
16778 5   
16779 2   
16780 7   
16781 1   
16782 5   
16783 1   
16784 5   
16785 4   
16786 7   
16787 7   
16788 2   
16789 9   
16790 3   
16791 7   
16792 6   
16793 65  
16794 3   
16795 6   
16796 5   
16797 73  
16798 4   
16799 8   
16800 93  
16801 7   
16802 6   
16803 70  
16804 3   
16805 3   
16806 4   
16807 2   
16808 98  
16809 8   
16810 1   
16811 8   
16812 10  
16813 2   
16814 4   
16815 5   
16816 7   
16817 3   
16818 10  
16819 6   
16820 3   
16821 8   
16822 8   
16823 10  
16824 80  
16825 7   
16826 2   
16827 9   
16828 3   
16829 4   
16830 6   
16831 4   
16832 1   
16833 5   
16834 99  
16835 1   
16836 83  
16837 3   
16838 3   
16839 10  
16840 3   
16841 10  
16842 65  
16843 7   
16844 6   
16845 10  
16846 2   
16847 8   
16848 3   
16849 7   
16850 5   
16851 10  
16852 10  
16853 9   
16854 9   
16855 5   
16856 8   
16857 8   
16858 9   
16859 72  
16860 5   
16861 4   
16862 88  
16863 9   
16864 3   
16865 100 
16866 3   
16867 7   
16868 4   
16869 4   
16870 6   
16871 68  
16872 83  
16873 6   
16874 1   
16875 2   
16876 60  
16877 6   
16878 7   
16879 3   
16880 1   
16881 8   
16882 4   
16883 4   
16884 9   
16885 59  
16886 1   
16887 9   
16888 2   
16889 4   
16890 59  
16891 10  
16892 3   
16893 8   
16894 7   
16895 6   
16896 6   
16897 8   
16898 7   
16899 9   
16900 1   
16901 8   
16902 8   
16903 1   
16904 74  
16905 95  
16906 2   
16907 3   
16908 1   
16909 1   
16910 2   
16911 59  
16912 5   
16913 9   
16914 5   
16915 2   
16916 8   
16917 4   
16918 4   
16919 8   
16920 64  
16921 9   
16922 8   
16923 1   
16924 57  
16925 77  
16926 66  
16927 2   
16928 10  
16929 8   
16930 9   
16931 1   
16932 4   
16933 2   
16934 54  
16935 7   
16936 9   
16937 7   
16938 9   
16939 8   
16940 8   
16941 5   
16942 7   
16943 8   
16944 5   
16945 10  
16946 4   
16947 1   
16948 9   
16949 10  
16950 6   
16951 66  
16952 1   
16953 9   
16954 4   
16955 3   
16956 1   
16957 7   
16958 4   
16959 5   
16960 9   
16961 9   
16962 6   
16963 9   
16964 10  
16965 62  
16966 4   
16967 7   
16968 5   
16969 9   
16970 3   
16971 9   
16972 9   
16973 7   
16974 10  
16975 9   
16976 6   
16977 10  
16978 2   
16979 82  
16980 3   
16981 7   
16982 4   
16983 8   
16984 2   
16985 7   
16986 73  
16987 8   
16988 55  
16989 8   
16990 54  
16991 9   
16992 9   
16993 6   
16994 10  
16995 9   
16996 5   
16997 2   
16998 6   
16999 81  
17000 5   
17001 9   
17002 3   
17003 57  
17004 4   
17005 64  
17006 2   
17007 6   
17008 1   
17009 7   
17010 3   
17011 9   
17012 4   
17013 9   
17014 10  
17015 62  
17016 9   
17017 2   
17018 6   
17019 1   
17020 95  
17021 3   
17022 9   
17023 62  
17024 6   
17025 10  
17026 87  
17027 7   
17028 10  
17029 6   
17030 7   
17031 1   
17032 6   
17033 9   
17034 3   
17035 92  
17036 63  
17037 9   
17038 3   
17039 63  
17040 65  
17041 3   
17042 74  
17043 2   
17044 3   
17045 7   
17046 2   
17047 2   
17048 8   
17049 8   
17050 3   
17051 2   
17052 8   
17053 78  
17054 8   
17055 74  
17056 1   
17057 1   
17058 97  
17059 7   
17060 4   
17061 92  
17062 6   
17063 6   
17064 10  
17065 7   
17066 1   
17067 9   
17068 68  
17069 1   
17070 9   
17071 10  
17072 2   
17073 4   
17074 78  
17075 9   
17076 6   
17077 4   
17078 5   
17079 9   
17080 1   
17081 9   
17082 3   
17083 8   
17084 3   
17085 8   
17086 4   
17087 7   
17088 3   
17089 83  
17090 5   
17091 9   
17092 8   
17093 8   
17094 3   
17095 52  
17096 2   
17097 1   
17098 10  
17099 69  
17100 3   
17101 3   
17102 4   
17103 4   
17104 2   
17105 10  
17106 97  
17107 2   
17108 1   
17109 2   
17110 3   
17111 5   
17112 8   
17113 1   
17114 6   
17115 65  
17116 8   
17117 95  
17118 1   
17119 2   
17120 3   
17121 6   
17122 9   
17123 9   
17124 6   
17125 10  
17126 6   
17127 2   
17128 7   
17129 4   
17130 64  
17131 1   
17132 8   
17133 9   
17134 5   
17135 2   
17136 3   
17137 9   
17138 8   
17139 84  
17140 4   
17141 9   
17142 2   
17143 4   
17144 9   
17145 9   
17146 10  
17147 8   
17148 2   
17149 6   
17150 84  
17151 58  
17152 8   
17153 6   
17154 2   
17155 6   
17156 10  
17157 59  
17158 1   
17159 9   
17160 5   
17161 94  
17162 5   
17163 6   
17164 3   
17165 91  
17166 52  
17167 7   
17168 3   
17169 55  
17170 7   
17171 1   
17172 65  
17173 88  
17174 1   
17175 57  
17176 8   
17177 10  
17178 2   
17179 7   
17180 10  
17181 4   
17182 8   
17183 4   
17184 1   
17185 3   
17186 9   
17187 82  
17188 99  
17189 4   
17190 64  
17191 7   
17192 5   
17193 68  
17194 52  
17195 67  
17196 7   
17197 62  
17198 10  
17199 7   
17200 4   
17201 5   
17202 7   
17203 2   
17204 2   
17205 8   
17206 2   
17207 8   
17208 10  
17209 2   
17210 58  
17211 7   
17212 1   
17213 8   
17214 6   
17215 90  
17216 7   
17217 5   
17218 5   
17219 4   
17220 4   
17221 1   
17222 74  
17223 8   
17224 9   
17225 1   
17226 6   
17227 1   
17228 7   
17229 10  
17230 9   
17231 3   
17232 74  
17233 6   
17234 8   
17235 1   
17236 7   
17237 3   
17238 4   
17239 6   
17240 5   
17241 7   
17242 5   
17243 8   
17244 10  
17245 73  
17246 6   
17247 5   
17248 10  
17249 71  
17250 2   
17251 2   
17252 9   
17253 72  
17254 5   
17255 2   
17256 7   
17257 10  
17258 1   
17259 5   
17260 5   
17261 3   
17262 1   
17263 7   
17264 7   
17265 4   
17266 93  
17267 5   
17268 3   
17269 6   
17270 92  
17271 78  
17272 7   
17273 7   
17274 1   
17275 74  
17276 1   
17277 10  
17278 6   
17279 1   
17280 7   
17281 10  
17282 3   
17283 8   
17284 89  
17285 4   
17286 6   
17287 3   
17288 3   
17289 10  
17290 4   
17291 8   
17292 7   
17293 1   
17294 100 
17295 4   
17296 65  
17297 3   
17298 6   
17299 87  
17300 6   
17301 1   
17302 6   
17303 5   
17304 10  
17305 9   
17306 6   
17307 3   
17308 10  
17309 7   
17310 1   
17311 6   
17312 5   
17313 2   
17314 2   
17315 61  
17316 10  
17317 4   
17318 9   
17319 8   
17320 10  
17321 7   
17322 10  
17323 6   
17324 5   
17325 5   
17326 81  
17327 2   
17328 96  
17329 2   
17330 1   
17331 1   
17332 66  
17333 10  
17334 4   
17335 93  
17336 5   
17337 7   
17338 4   
17339 8   
17340 2   
17341 50  
17342 2   
17343 2   
17344 7   
17345 63  
17346 62  
17347 2   
17348 70  
17349 5   
17350 71  
17351 2   
17352 3   
17353 54  
17354 89  
17355 85  
17356 51  
17357 3   
17358 8   
17359 1   
17360 2   
17361 9   
17362 8   
17363 2   
17364 3   
17365 4   
17366 4   
17367 1   
17368 10  
17369 2   
17370 59  
17371 6   
17372 8   
17373 2   
17374 8   
17375 10  
17376 1   
17377 80  
17378 3   
17379 10  
17380 10  
17381 3   
17382 4   
17383 4   
17384 7   
17385 79  
17386 51  
17387 2   
17388 2   
17389 4   
17390 5   
17391 10  
17392 7   
17393 81  
17394 8   
17395 58  
17396 8   
17397 10  
17398 6   
17399 4   
17400 10  
17401 1   
17402 10  
17403 10  
17404 8   
17405 8   
17406 10  
17407 5   
17408 3   
17409 9   
17410 7   
17411 61  
17412 6   
17413 1   
17414 56  
17415 8   
17416 5   
17417 4   
17418 9   
17419 7   
17420 9   
17421 7   
17422 5   
17423 2   
17424 3   
17425 1   
17426 10  
17427 3   
17428 51  
17429 61  
17430 9   
17431 2   
17432 91  
17433 9   
17434 92  
17435 9   
17436 2   
17437 9   
17438 56  
17439 4   
17440 72  
17441 65  
17442 61  
17443 7   
17444 9   
17445 2   
17446 3   
17447 8   
17448 9   
17449 90  
17450 3   
17451 58  
17452 7   
17453 3   
17454 10  
17455 60  
17456 1   
17457 2   
17458 1   
17459 97  
17460 77  
17461 1   
17462 2   
17463 92  
17464 10  
17465 71  
17466 10  
17467 6   
17468 81  
17469 1   
17470 4   
17471 4   
17472 6   
17473 90  
17474 3   
17475 1   
17476 10  
17477 5   
17478 7   
17479 6   
17480 87  
17481 9   
17482 4   
17483 72  
17484 95  
17485 7   
17486 3   
17487 9   
17488 7   
17489 3   
17490 53  
17491 6   
17492 60  
17493 9   
17494 1   
17495 7   
17496 9   
17497 4   
17498 2   
17499 6   
17500 1   
17501 6   
17502 6   
17503 2   
17504 2   
17505 4   
17506 10  
17507 63  
17508 5   
17509 9   
17510 2   
17511 4   
17512 10  
17513 10  
17514 8   
17515 51  
17516 3   
17517 1   
17518 8   
17519 82  
17520 1   
17521 10  
17522 9   
17523 9   
17524 8   
17525 5   
17526 5   
17527 62  
17528 9   
17529 10  
17530 7   
17531 3   
17532 1   
17533 8   
17534 1   
17535 7   
17536 3   
17537 9   
17538 83  
17539 6   
17540 4   
17541 9   
17542 7   
17543 66  
17544 2   
17545 6   
17546 2   
17547 72  
17548 75  
17549 10  
17550 7   
17551 10  
17552 9   
17553 50  
17554 10  
17555 10  
17556 3   
17557 5   
17558 2   
17559 1   
17560 4   
17561 83  
17562 9   
17563 6   
17564 4   
17565 83  
17566 10  
17567 3   
17568 4   
17569 5   
17570 3   
17571 2   
17572 7   
17573 84  
17574 4   
17575 7   
17576 3   
17577 5   
17578 3   
17579 1   
17580 5   
17581 3   
17582 7   
17583 3   
17584 8   
17585 1   
17586 74  
17587 10  
17588 1   
17589 64  
17590 8   
17591 6   
17592 1   
17593 5   
17594 8   
17595 68  
17596 8   
17597 10  
17598 6   
17599 8   
17600 83  
17601 9   
17602 10  
17603 5   
17604 4   
17605 9   
17606 5   
17607 7   
17608 84  
17609 65  
17610 58  
17611 84  
17612 8   
17613 76  
17614 7   
17615 59  
17616 7   
17617 2   
17618 3   
17619 5   
17620 9   
17621 9   
17622 6   
17623 5   
17624 5   
17625 3   
17626 1   
17627 4   
17628 2   
17629 76  
17630 6   
17631 1   
17632 87  
17633 7   
17634 5   
17635 10  
17636 7   
17637 3   
17638 5   
17639 4   
17640 7   
17641 87  
17642 2   
17643 2   
17644 1   
17645 1   
17646 5   
17647 6   
17648 1   
17649 4   
17650 6   
17651 4   
17652 94  
17653 6   
17654 6   
17655 5   
17656 4   
17657 4   
17658 6   
17659 1   
17660 2   
17661 2   
17662 6   
17663 70  
17664 9   
17665 5   
17666 5   
17667 9   
17668 3   
17669 6   
17670 8   
17671 68  
17672 9   
17673 7   
17674 9   
17675 4   
17676 6   
17677 2   
17678 1   
17679 1   
17680 10  
17681 10  
17682 60  
17683 5   
17684 5   
17685 65  
17686 1   
17687 50  
17688 8   
17689 1   
17690 8   
17691 5   
17692 6   
17693 9   
17694 10  
17695 4   
17696 1   
17697 4   
17698 8   
17699 10  
17700 2   
17701 82  
17702 6   
17703 5   
17704 10  
17705 4   
17706 3   
17707 91  
17708 2   
17709 72  
17710 2   
17711 5   
17712 58  
17713 52  
17714 10  
17715 9   
17716 69  
17717 71  
17718 5   
17719 2   
17720 4   
17721 61  
17722 1   
17723 5   
17724 7   
17725 2   
17726 58  
17727 4   
17728 4   
17729 50  
17730 61  
17731 3   
17732 3   
17733 4   
17734 1   
17735 76  
17736 2   
17737 8   
17738 4   
17739 2   
17740 9   
17741 87  
17742 5   
17743 2   
17744 5   
17745 4   
17746 8   
17747 2   
17748 9   
17749 78  
17750 5   
17751 6   
17752 10  
17753 10  
17754 7   
17755 7   
17756 8   
17757 1   
17758 6   
17759 85  
17760 51  
17761 3   
17762 9   
17763 3   
17764 65  
17765 1   
17766 6   
17767 8   
17768 4   
17769 1   
17770 5   
17771 97  
17772 3   
17773 1   
17774 99  
17775 4   
17776 2   
17777 3   
17778 9   
17779 6   
17780 1   
17781 2   
17782 10  
17783 58  
17784 3   
17785 100 
17786 1   
17787 8   
17788 4   
17789 9   
17790 2   
17791 9   
17792 2   
17793 5   
17794 9   
17795 7   
17796 7   
17797 7   
17798 67  
17799 9   
17800 10  
17801 2   
17802 6   
17803 6   
17804 9   
17805 5   
17806 10  
17807 4   
17808 3   
17809 8   
17810 7   
17811 10  
17812 53  
17813 9   
17814 67  
17815 10  
17816 9   
17817 6   
17818 2   
17819 10  
17820 69  
17821 7   
17822 89  
17823 8   
17824 10  
17825 3   
17826 3   
17827 3   
17828 10  
17829 4   
17830 2   
17831 3   
17832 7   
17833 7   
17834 9   
17835 3   
17836 9   
17837 3   
17838 2   
17839 8   
17840 8   
17841 4   
17842 54  
17843 1   
17844 57  
17845 4   
17846 4   
17847 60  
17848 2   
17849 6   
17850 3   
17851 1   
17852 4   
17853 8   
17854 3   
17855 88  
17856 6   
17857 9   
17858 7   
17859 8   
17860 2   
17861 1   
17862 2   
17863 8   
17864 4   
17865 4   
17866 2   
17867 5   
17868 1   
17869 8   
17870 9   
17871 6   
17872 6   
17873 67  
17874 4   
17875 4   
17876 7   
17877 9   
17878 3   
17879 1   
17880 1   
17881 4   
17882 4   
17883 6   
17884 100 
17885 80  
17886 4   
17887 57  
17888 68  
17889 62  
17890 4   
17891 6   
17892 8   
17893 74  
17894 58  
17895 7   
17896 5   
17897 7   
17898 8   
17899 1   
17900 80  
17901 8   
17902 85  
17903 78  
17904 2   
17905 4   
17906 1   
17907 4   
17908 75  
17909 8   
17910 3   
17911 9   
17912 6   
17913 6   
17914 3   
17915 10  
17916 6   
17917 2   
17918 3   
17919 1   
17920 2   
17921 1   
17922 6   
17923 1   
17924 8   
17925 4   
17926 7   
17927 10  
17928 2   
17929 8   
17930 100 
17931 10  
17932 59  
17933 8   
17934 10  
17935 4   
17936 6   
17937 5   
17938 4   
17939 8   
17940 3   
17941 69  
17942 10  
17943 1   
17944 5   
17945 5   
17946 6   
17947 86  
17948 4   
17949 96  
17950 3   
17951 3   
17952 74  
17953 10  
17954 71  
17955 9   
17956 7   
17957 6   
17958 5   
17959 54  
17960 10  
17961 9   
17962 67  
17963 8   
17964 58  
17965 77  
17966 1   
17967 1   
17968 55  
17969 5   
17970 53  
17971 55  
17972 6   
17973 3   
17974 5   
17975 50  
17976 1   
17977 6   
17978 82  
17979 3   
17980 10  
17981 96  
17982 8   
17983 82  
17984 53  
17985 8   
17986 1   
17987 10  
17988 8   
17989 2   
17990 9   
17991 2   
17992 3   
17993 9   
17994 73  
17995 6   
17996 7   
17997 8   
17998 3   
17999 3   
18000 1   
18001 2   
18002 5   
18003 6   
18004 5   
18005 4   
18006 1   
18007 69  
18008 1   
18009 4   
18010 9   
18011 7   
18012 6   
18013 8   
18014 7   
18015 59  
18016 86  
18017 1   
18018 2   
18019 7   
18020 4   
18021 10  
18022 7   
18023 84  
18024 10  
18025 5   
18026 3   
18027 98  
18028 9   
18029 1   
18030 70  
18031 68  
18032 10  
18033 2   
18034 2   
18035 5   
18036 4   
18037 70  
18038 3   
18039 5   
18040 100 
18041 50  
18042 4   
18043 64  
18044 1   
18045 2   
18046 70  
18047 60  
18048 3   
18049 2   
18050 1   
18051 3   
18052 10  
18053 6   
18054 9   
18055 7   
18056 3   
18057 8   
18058 3   
18059 9   
18060 7   
18061 5   
18062 9   
18063 4   
18064 1   
18065 2   
18066 2   
18067 7   
18068 84  
18069 7   
18070 77  
18071 4   
18072 5   
18073 81  
18074 1   
18075 7   
18076 55  
18077 2   
18078 8   
18079 1   
18080 9   
18081 98  
18082 2   
18083 89  
18084 6   
18085 2   
18086 4   
18087 1   
18088 57  
18089 3   
18090 4   
18091 62  
18092 7   
18093 89  
18094 6   
18095 94  
18096 1   
18097 5   
18098 9   
18099 6   
18100 4   
18101 4   
18102 2   
18103 91  
18104 7   
18105 5   
18106 2   
18107 74  
18108 4   
18109 5   
18110 8   
18111 1   
18112 8   
18113 10  
18114 3   
18115 7   
18116 76  
18117 52  
18118 1   
18119 5   
18120 61  
18121 83  
18122 10  
18123 5   
18124 2   
18125 2   
18126 1   
18127 1   
18128 6   
18129 1   
18130 4   
18131 10  
18132 87  
18133 2   
18134 10  
18135 1   
18136 9   
18137 86  
18138 51  
18139 94  
18140 7   
18141 8   
18142 2   
18143 6   
18144 10  
18145 63  
18146 8   
18147 9   
18148 8   
18149 1   
18150 1   
18151 2   
18152 2   
18153 81  
18154 85  
18155 68  
18156 7   
18157 9   
18158 7   
18159 6   
18160 81  
18161 1   
18162 5   
18163 75  
18164 2   
18165 8   
18166 7   
18167 1   
18168 76  
18169 9   
18170 8   
18171 93  
18172 5   
18173 6   
18174 97  
18175 52  
18176 8   
18177 7   
18178 8   
18179 1   
18180 4   
18181 10  
18182 58  
18183 8   
18184 8   
18185 8   
18186 6   
18187 68  
18188 8   
18189 4   
18190 7   
18191 2   
18192 8   
18193 54  
18194 2   
18195 10  
18196 82  
18197 6   
18198 1   
18199 1   
18200 74  
18201 82  
18202 79  
18203 10  
18204 7   
18205 6   
18206 10  
18207 9   
18208 51  
18209 1   
18210 3   
18211 7   
18212 2   
18213 96  
18214 6   
18215 8   
18216 5   
18217 10  
18218 66  
18219 2   
18220 9   
18221 90  
18222 8   
18223 10  
18224 4   
18225 3   
18226 10  
18227 9   
18228 99  
18229 10  
18230 57  
18231 6   
18232 7   
18233 2   
18234 7   
18235 7   
18236 6   
18237 2   
18238 9   
18239 7   
18240 1   
18241 8   
18242 3   
18243 2   
18244 5   
18245 7   
18246 9   
18247 2   
18248 10  
18249 5   
18250 3   
18251 10  
18252 3   
18253 7   
18254 1   
18255 75  
18256 6   
18257 72  
18258 6   
18259 4   
18260 75  
18261 8   
18262 5   
18263 8   
18264 5   
18265 57  
18266 91  
18267 1   
18268 62  
18269 9   
18270 2   
18271 79  
18272 3   
18273 8   
18274 4   
18275 1   
18276 3   
18277 5   
18278 5   
18279 8   
18280 5   
18281 10  
18282 6   
18283 6   
18284 92  
18285 8   
18286 9   
18287 9   
18288 1   
18289 4   
18290 1   
18291 6   
18292 5   
18293 4   
18294 8   
18295 4   
18296 9   
18297 7   
18298 8   
18299 9   
18300 4   
18301 7   
18302 9   
18303 8   
18304 64  
18305 79  
18306 1   
18307 91  
18308 4   
18309 8   
18310 8   
18311 9   
18312 98  
18313 10  
18314 3   
18315 10  
18316 6   
18317 1   
18318 4   
18319 9   
18320 9   
18321 3   
18322 9   
18323 2   
18324 10  
18325 1   
18326 2   
18327 10  
18328 3   
18329 75  
18330 1   
18331 8   
18332 5   
18333 7   
18334 3   
18335 4   
18336 4   
18337 7   
18338 6   
18339 7   
18340 10  
18341 97  
18342 1   
18343 5   
18344 96  
18345 6   
18346 4   
18347 1   
18348 5   
18349 8   
18350 3   
18351 4   
18352 8   
18353 67  
18354 10  
18355 95  
18356 8   
18357 2   
18358 7   
18359 7   
18360 4   
18361 5   
18362 95  
18363 6   
18364 5   
18365 6   
18366 5   
18367 8   
18368 8   
18369 10  
18370 4   
18371 96  
18372 10  
18373 2   
18374 1   
18375 1   
18376 6   
18377 3   
18378 60  
18379 63  
18380 9   
18381 4   
18382 7   
18383 3   
18384 83  
18385 10  
18386 6   
18387 8   
18388 8   
18389 4   
18390 3   
18391 2   
18392 8   
18393 10  
18394 2   
18395 8   
18396 4   
18397 1   
18398 4   
18399 7   
18400 7   
18401 10  
18402 9   
18403 67  
18404 9   
18405 5   
18406 74  
18407 9   
18408 8   
18409 4   
18410 5   
18411 96  
18412 1   
18413 70  
18414 1   
18415 6   
18416 2   
18417 4   
18418 7   
18419 84  
18420 4   
18421 6   
18422 1   
18423 6   
18424 86  
18425 6   
18426 2   
18427 10  
18428 50  
18429 59  
18430 74  
18431 3   
18432 8   
18433 2   
18434 9   
18435 7   
18436 56  
18437 3   
18438 8   
18439 3   
18440 4   
18441 4   
18442 8   
18443 8   
18444 5   
18445 8   
18446 6   
18447 10  
18448 9   
18449 5   
18450 4   
18451 10  
18452 10  
18453 3   
18454 1   
18455 3   
18456 10  
18457 94  
18458 1   
18459 10  
18460 6   
18461 97  
18462 2   
18463 10  
18464 8   
18465 1   
18466 5   
18467 5   
18468 2   
18469 8   
18470 2   
18471 5   
18472 5   
18473 5   
18474 82  
18475 78  
18476 3   
18477 10  
18478 2   
18479 3   
18480 10  
18481 7   
18482 1   
18483 9   
18484 3   
18485 2   
18486 71  
18487 8   
18488 3   
18489 10  
18490 75  
18491 2   
18492 5   
18493 9   
18494 5   
18495 3   
18496 3   
18497 6   
18498 9   
18499 1   
18500 5   
18501 6   
18502 4   
18503 59  
18504 5   
18505 10  
18506 2   
18507 6   
18508 3   
18509 10  
18510 4   
18511 4   
18512 86  
18513 8   
18514 9   
18515 4   
18516 3   
18517 9   
18518 10  
18519 6   
18520 77  
18521 100 
18522 3   
18523 10  
18524 3   
18525 4   
18526 3   
18527 8   
18528 2   
18529 1   
18530 7   
18531 10  
18532 10  
18533 1   
18534 4   
18535 7   
18536 1   
18537 1   
18538 6   
18539 1   
18540 6   
18541 1   
18542 4   
18543 9   
18544 3   
18545 7   
18546 8   
18547 9   
18548 10  
18549 9   
18550 8   
18551 9   
18552 2   
18553 10  
18554 1   
18555 1   
18556 8   
18557 8   
18558 99  
18559 5   
18560 9   
18561 5   
18562 7   
18563 2   
18564 7   
18565 1   
18566 7   
18567 56  
18568 61  
18569 2   
18570 4   
18571 9   
18572 1   
18573 72  
18574 5   
18575 8   
18576 7   
18577 99  
18578 7   
18579 10  
18580 2   
18581 93  
18582 6   
18583 10  
18584 9   
18585 4   
18586 80  
18587 9   
18588 1   
18589 8   
18590 7   
18591 6   
18592 62  
18593 10  
18594 10  
18595 6   
18596 8   
18597 8   
18598 10  
18599 4   
18600 6   
18601 95  
18602 7   
18603 97  
18604 1   
18605 8   
18606 1   
18607 1   
18608 77  
18609 8   
18610 1   
18611 1   
18612 7   
18613 7   
18614 91  
18615 2   
18616 99  
18617 3   
18618 10  
18619 3   
18620 10  
18621 9   
18622 7   
18623 10  
18624 2   
18625 3   
18626 3   
18627 81  
18628 9   
18629 4   
18630 2   
18631 5   
18632 5   
18633 1   
18634 84  
18635 10  
18636 4   
18637 10  
18638 3   
18639 91  
18640 2   
18641 2   
18642 7   
18643 8   
18644 7   
18645 7   
18646 3   
18647 60  
18648 8   
18649 9   
18650 4   
18651 4   
18652 7   
18653 82  
18654 54  
18655 10  
18656 1   
18657 6   
18658 64  
18659 4   
18660 1   
18661 68  
18662 1   
18663 3   
18664 5   
18665 2   
18666 3   
18667 6   
18668 7   
18669 9   
18670 3   
18671 5   
18672 1   
18673 8   
18674 7   
18675 4   
18676 6   
18677 1   
18678 2   
18679 5   
18680 2   
18681 1   
18682 50  
18683 80  
18684 9   
18685 1   
18686 4   
18687 4   
18688 6   
18689 6   
18690 83  
18691 7   
18692 9   
18693 10  
18694 7   
18695 9   
18696 6   
18697 7   
18698 5   
18699 8   
18700 56  
18701 1   
18702 3   
18703 6   
18704 52  
18705 1   
18706 8   
18707 10  
18708 10  
18709 83  
18710 3   
18711 10  
18712 9   
18713 3   
18714 3   
18715 4   
18716 10  
18717 5   
18718 2   
18719 2   
18720 4   
18721 3   
18722 7   
18723 4   
18724 6   
18725 9   
18726 53  
18727 2   
18728 5   
18729 10  
18730 6   
18731 8   
18732 65  
18733 5   
18734 8   
18735 61  
18736 5   
18737 1   
18738 1   
18739 2   
18740 62  
18741 5   
18742 9   
18743 2   
18744 5   
18745 3   
18746 98  
18747 2   
18748 7   
18749 6   
18750 95  
18751 60  
18752 97  
18753 7   
18754 6   
18755 1   
18756 5   
18757 6   
18758 4   
18759 1   
18760 4   
18761 99  
18762 1   
18763 3   
18764 7   
18765 10  
18766 6   
18767 74  
18768 4   
18769 7   
18770 5   
18771 9   
18772 4   
18773 8   
18774 8   
18775 9   
18776 10  
18777 5   
18778 57  
18779 4   
18780 1   
18781 68  
18782 96  
18783 2   
18784 6   
18785 6   
18786 6   
18787 10  
18788 51  
18789 9   
18790 54  
18791 7   
18792 4   
18793 10  
18794 8   
18795 10  
18796 90  
18797 7   
18798 9   
18799 7   
18800 9   
18801 10  
18802 2   
18803 10  
18804 7   
18805 9   
18806 2   
18807 9   
18808 8   
18809 5   
18810 90  
18811 4   
18812 4   
18813 94  
18814 99  
18815 2   
18816 3   
18817 8   
18818 2   
18819 74  
18820 93  
18821 57  
18822 4   
18823 3   
18824 8   
18825 2   
18826 3   
18827 10  
18828 4   
18829 3   
18830 6   
18831 7   
18832 6   
18833 10  
18834 3   
18835 92  
18836 3   
18837 2   
18838 6   
18839 6   
18840 2   
18841 9   
18842 57  
18843 3   
18844 51  
18845 1   
18846 5   
18847 1   
18848 8   
18849 1   
18850 62  
18851 7   
18852 1   
18853 6   
18854 6   
18855 5   
18856 3   
18857 77  
18858 5   
18859 1   
18860 2   
18861 2   
18862 3   
18863 83  
18864 8   
18865 7   
18866 3   
18867 2   
18868 9   
18869 87  
18870 4   
18871 54  
18872 10  
18873 7   
18874 10  
18875 2   
18876 10  
18877 6   
18878 3   
18879 1   
18880 9   
18881 1   
18882 6   
18883 93  
18884 7   
18885 1   
18886 5   
18887 6   
18888 5   
18889 5   
18890 77  
18891 10  
18892 7   
18893 8   
18894 1   
18895 10  
18896 3   
18897 9   
18898 10  
18899 9   
18900 2   
18901 3   
18902 9   
18903 6   
18904 8   
18905 72  
18906 87  
18907 10  
18908 8   
18909 10  
18910 2   
18911 9   
18912 4   
18913 8   
18914 9   
18915 6   
18916 9   
18917 7   
18918 10  
18919 2   
18920 1   
18921 7   
18922 89  
18923 2   
18924 6   
18925 4   
18926 1   
18927 68  
18928 1   
18929 8   
18930 7   
18931 5   
18932 5   
18933 2   
18934 3   
18935 96  
18936 7   
18937 9   
18938 10  
18939 10  
18940 4   
18941 6   
18942 8   
18943 8   
18944 1   
18945 6   
18946 1   
18947 77  
18948 3   
18949 7   
18950 2   
18951 4   
18952 4   
18953 1   
18954 4   
18955 6   
18956 1   
18957 3   
18958 7   
18959 9   
18960 96  
18961 73  
18962 9   
18963 73  
18964 6   
18965 7   
18966 1   
18967 2   
18968 65  
18969 7   
18970 2   
18971 2   
18972 3   
18973 2   
18974 4   
18975 77  
18976 7   
18977 5   
18978 3   
18979 72  
18980 10  
18981 5   
18982 4   
18983 7   
18984 8   
18985 3   
18986 9   
18987 10  
18988 1   
18989 8   
18990 10  
18991 9   
18992 8   
18993 1   
18994 5   
18995 92  
18996 9   
18997 53  
18998 97  
18999 4   
19000 1   
19001 9   
19002 7   
19003 2   
19004 7   
19005 2   
19006 10  
19007 1   
19008 2   
19009 1   
19010 10  
19011 6   
19012 7   
19013 7   
19014 5   
19015 1   
19016 5   
19017 1   
19018 10  
19019 7   
19020 5   
19021 6   
19022 6   
19023 5   
19024 9   
19025 8   
19026 4   
19027 89  
19028 9   
19029 5   
19030 2   
19031 3   
19032 97  
19033 4   
19034 4   
19035 4   
19036 10  
19037 8   
19038 6   
19039 8   
19040 7   
19041 93  
19042 4   
19043 7   
19044 7   
19045 1   
19046 10  
19047 5   
19048 5   
19049 8   
19050 9   
19051 1   
19052 4   
19053 5   
19054 7   
19055 72  
19056 1   
19057 81  
19058 7   
19059 4   
19060 6   
19061 9   
19062 3   
19063 10  
19064 3   
19065 10  
19066 9   
19067 5   
19068 4   
19069 61  
19070 6   
19071 7   
19072 4   
19073 10  
19074 71  
19075 10  
19076 2   
19077 6   
19078 3   
19079 7   
19080 6   
19081 71  
19082 9   
19083 6   
19084 3   
19085 4   
19086 98  
19087 2   
19088 5   
19089 3   
19090 7   
19091 10  
19092 86  
19093 6   
19094 3   
19095 8   
19096 3   
19097 8   
19098 3   
19099 3   
19100 5   
19101 1   
19102 3   
19103 52  
19104 3   
19105 10  
19106 8   
19107 2   
19108 5   
19109 68  
19110 3   
19111 3   
19112 9   
19113 5   
19114 6   
19115 7   
19116 10  
19117 79  
19118 9   
19119 5   
19120 9   
19121 63  
19122 9   
19123 10  
19124 59  
19125 10  
19126 1   
19127 85  
19128 54  
19129 1   
19130 9   
19131 62  
19132 8   
19133 8   
19134 58  
19135 6   
19136 2   
19137 1   
19138 2   
19139 4   
19140 7   
19141 2   
19142 9   
19143 1   
19144 10  
19145 10  
19146 10  
19147 8   
19148 9   
19149 7   
19150 77  
19151 5   
19152 5   
19153 1   
19154 94  
19155 8   
19156 98  
19157 1   
19158 3   
19159 5   
19160 1   
19161 1   
19162 10  
19163 69  
19164 6   
19165 78  
19166 10  
19167 2   
19168 8   
19169 63  
19170 3   
19171 7   
19172 8   
19173 4   
19174 6   
19175 10  
19176 10  
19177 10  
19178 73  
19179 57  
19180 3   
19181 4   
19182 5   
19183 8   
19184 89  
19185 3   
19186 6   
19187 91  
19188 8   
19189 6   
19190 8   
19191 7   
19192 1   
19193 7   
19194 10  
19195 72  
19196 7   
19197 4   
19198 2   
19199 2   
19200 88  
19201 1   
19202 73  
19203 4   
19204 99  
19205 4   
19206 7   
19207 94  
19208 6   
19209 4   
19210 10  
19211 6   
19212 98  
19213 10  
19214 5   
19215 7   
19216 9   
19217 5   
19218 5   
19219 59  
19220 10  
19221 2   
19222 7   
19223 99  
19224 4   
19225 6   
19226 7   
19227 9   
19228 71  
19229 4   
19230 91  
19231 6   
19232 10  
19233 97  
19234 7   
19235 9   
19236 61  
19237 1   
19238 3   
19239 68  
19240 8   
19241 10  
19242 4   
19243 8   
19244 1   
19245 3   
19246 1   
19247 8   
19248 3   
19249 4   
19250 3   
19251 4   
19252 67  
19253 5   
19254 2   
19255 8   
19256 10  
19257 3   
19258 5   
19259 5   
19260 1   
19261 5   
19262 7   
19263 2   
19264 2   
19265 7   
19266 8   
19267 7   
19268 10  
19269 3   
19270 3   
19271 2   
19272 10  
19273 2   
19274 5   
19275 61  
19276 10  
19277 10  
19278 3   
19279 79  
19280 7   
19281 6   
19282 6   
19283 8   
19284 9   
19285 9   
19286 1   
19287 81  
19288 10  
19289 3   
19290 5   
19291 6   
19292 1   
19293 9   
19294 3   
19295 83  
19296 3   
19297 9   
19298 89  
19299 8   
19300 67  
19301 10  
19302 7   
19303 80  
19304 6   
19305 8   
19306 6   
19307 72  
19308 4   
19309 7   
19310 1   
19311 95  
19312 6   
19313 1   
19314 85  
19315 2   
19316 1   
19317 81  
19318 79  
19319 2   
19320 4   
19321 69  
19322 10  
19323 4   
19324 2   
19325 4   
19326 9   
19327 7   
19328 5   
19329 6   
19330 75  
19331 8   
19332 8   
19333 50  
19334 9   
19335 5   
19336 89  
19337 100 
19338 3   
19339 3   
19340 7   
19341 3   
19342 71  
19343 85  
19344 10  
19345 9   
19346 8   
19347 6   
19348 2   
19349 4   
19350 2   
19351 68  
19352 2   
19353 3   
19354 7   
19355 8   
19356 54  
19357 3   
19358 8   
19359 2   
19360 9   
19361 93  
19362 5   
19363 1   
19364 7   
19365 82  
19366 5   
19367 9   
19368 10  
19369 3   
19370 4   
19371 65  
19372 10  
19373 4   
19374 5   
19375 6   
19376 2   
19377 7   
19378 89  
19379 97  
19380 9   
19381 3   
19382 4   
19383 2   
19384 2   
19385 8   
19386 7   
19387 9   
19388 1   
19389 10  
19390 54  
19391 2   
19392 8   
19393 4   
19394 4   
19395 2   
19396 8   
19397 7   
19398 5   
19399 1   
19400 2   
19401 5   
19402 7   
19403 4   
19404 9   
19405 10  
19406 8   
19407 98  
19408 72  
19409 69  
19410 50  
19411 6   
19412 3   
19413 7   
19414 84  
19415 1   
19416 8   
19417 9   
19418 1   
19419 55  
19420 2   
19421 90  
19422 4   
19423 7   
19424 3   
19425 5   
19426 5   
19427 9   
19428 9   
19429 6   
19430 7   
19431 6   
19432 9   
19433 1   
19434 10  
19435 4   
19436 80  
19437 79  
19438 3   
19439 1   
19440 8   
19441 6   
19442 8   
19443 7   
19444 5   
19445 4   
19446 4   
19447 7   
19448 2   
19449 6   
19450 7   
19451 7   
19452 10  
19453 4   
19454 5   
19455 2   
19456 89  
19457 60  
19458 2   
19459 1   
19460 54  
19461 9   
19462 10  
19463 7   
19464 3   
19465 99  
19466 8   
19467 7   
19468 2   
19469 2   
19470 57  
19471 1   
19472 10  
19473 10  
19474 2   
19475 3   
19476 2   
19477 77  
19478 88  
19479 9   
19480 55  
19481 9   
19482 2   
19483 9   
19484 4   
19485 8   
19486 73  
19487 3   
19488 96  
19489 1   
19490 9   
19491 4   
19492 98  
19493 10  
19494 9   
19495 2   
19496 2   
19497 8   
19498 10  
19499 1   
19500 7   
19501 4   
19502 9   
19503 4   
19504 99  
19505 9   
19506 10  
19507 3   
19508 9   
19509 56  
19510 1   
19511 1   
19512 78  
19513 4   
19514 5   
19515 6   
19516 94  
19517 6   
19518 5   
19519 10  
19520 7   
19521 1   
19522 9   
19523 6   
19524 9   
19525 6   
19526 62  
19527 8   
19528 90  
19529 3   
19530 5   
19531 4   
19532 83  
19533 2   
19534 5   
19535 68  
19536 3   
19537 5   
19538 3   
19539 3   
19540 1   
19541 52  
19542 10  
19543 1   
19544 2   
19545 57  
19546 54  
19547 59  
19548 82  
19549 6   
19550 63  
19551 6   
19552 5   
19553 59  
19554 5   
19555 5   
19556 2   
19557 8   
19558 1   
19559 3   
19560 2   
19561 58  
19562 4   
19563 6   
19564 1   
19565 74  
19566 8   
19567 2   
19568 2   
19569 76  
19570 4   
19571 8   
19572 8   
19573 55  
19574 55  
19575 69  
19576 2   
19577 3   
19578 10  
19579 10  
19580 10  
19581 2   
19582 4   
19583 62  
19584 2   
19585 96  
19586 74  
19587 9   
19588 9   
19589 2   
19590 2   
19591 6   
19592 84  
19593 6   
19594 6   
19595 2   
19596 6   
19597 71  
19598 9   
19599 9   
19600 4   
19601 2   
19602 7   
19603 6   
19604 9   
19605 4   
19606 6   
19607 10  
19608 79  
19609 56  
19610 60  
19611 1   
19612 6   
19613 95  
19614 7   
19615 8   
19616 9   
19617 8   
19618 2   
19619 10  
19620 7   
19621 91  
19622 9   
19623 1   
19624 66  
19625 1   
19626 1   
19627 9   
19628 5   
19629 1   
19630 5   
19631 2   
19632 2   
19633 7   
19634 6   
19635 10  
19636 10  
19637 7   
19638 10  
19639 6   
19640 9   
19641 3   
19642 4   
19643 8   
19644 9   
19645 9   
19646 84  
19647 7   
19648 6   
19649 6   
19650 7   
19651 6   
19652 1   
19653 10  
19654 9   
19655 4   
19656 10  
19657 4   
19658 85  
19659 6   
19660 75  
19661 70  
19662 5   
19663 81  
19664 88  
19665 7   
19666 74  
19667 55  
19668 10  
19669 6   
19670 8   
19671 2   
19672 4   
19673 6   
19674 1   
19675 2   
19676 9   
19677 4   
19678 7   
19679 10  
19680 7   
19681 5   
19682 9   
19683 50  
19684 1   
19685 4   
19686 59  
19687 10  
19688 2   
19689 7   
19690 90  
19691 7   
19692 3   
19693 2   
19694 3   
19695 8   
19696 4   
19697 85  
19698 66  
19699 6   
19700 2   
19701 4   
19702 3   
19703 8   
19704 10  
19705 1   
19706 9   
19707 7   
19708 5   
19709 10  
19710 6   
19711 8   
19712 95  
19713 7   
19714 7   
19715 9   
19716 7   
19717 4   
19718 2   
19719 4   
19720 6   
19721 6   
19722 80  
19723 10  
19724 5   
19725 6   
19726 80  
19727 5   
19728 6   
19729 78  
19730 9   
19731 3   
19732 2   
19733 2   
19734 78  
19735 1   
19736 10  
19737 9   
19738 1   
19739 7   
19740 6   
19741 1   
19742 70  
19743 77  
19744 6   
19745 1   
19746 1   
19747 7   
19748 10  
19749 90  
19750 10  
19751 10  
19752 78  
19753 8   
19754 2   
19755 5   
19756 5   
19757 3   
19758 9   
19759 6   
19760 3   
19761 87  
19762 6   
19763 100 
19764 90  
19765 3   
19766 2   
19767 97  
19768 8   
19769 8   
19770 52  
19771 5   
19772 90  
19773 10  
19774 8   
19775 2   
19776 2   
19777 6   
19778 7   
19779 8   
19780 58  
19781 8   
19782 73  
19783 1   
19784 62  
19785 5   
19786 100 
19787 60  
19788 7   
19789 8   
19790 53  
19791 9   
19792 8   
19793 7   
19794 53  
19795 6   
19796 65  
19797 77  
19798 5   
19799 2   
19800 1   
19801 8   
19802 10  
19803 3   
19804 58  
19805 99  
19806 5   
19807 9   
19808 5   
19809 4   
19810 7   
19811 5   
19812 1   
19813 9   
19814 5   
19815 9   
19816 2   
19817 2   
19818 5   
19819 1   
19820 62  
19821 4   
19822 7   
19823 9   
19824 4   
19825 1   
19826 8   
19827 6   
19828 4   
19829 6   
19830 4   
19831 2   
19832 79  
19833 80  
19834 64  
19835 1   
19836 3   
19837 1   
19838 9   
19839 3   
19840 10  
19841 2   
19842 8   
19843 1   
19844 9   
19845 52  
19846 6   
19847 9   
19848 6   
19849 4   
19850 82  
19851 63  
19852 77  
19853 8   
19854 7   
19855 6   
19856 7   
19857 5   
19858 3   
19859 52  
19860 84  
19861 83  
19862 1   
19863 5   
19864 5   
19865 1   
19866 9   
19867 7   
19868 9   
19869 1   
19870 71  
19871 4   
19872 5   
19873 4   
19874 9   
19875 9   
19876 66  
19877 8   
19878 62  
19879 7   
19880 9   
19881 79  
19882 2   
19883 5   
19884 8   
19885 67  
19886 8   
19887 7   
19888 6   
19889 2   
19890 6   
19891 1   
19892 72  
19893 4   
19894 8   
19895 9   
19896 3   
19897 4   
19898 10  
19899 2   
19900 4   
19901 3   
19902 5   
19903 5   
19904 79  
19905 3   
19906 98  
19907 61  
19908 6   
19909 58  
19910 8   
19911 9   
19912 4   
19913 8   
19914 5   
19915 6   
19916 70  
19917 7   
19918 10  
19919 10  
19920 3   
19921 9   
19922 4   
19923 78  
19924 97  
19925 90  
19926 7   
19927 9   
19928 10  
19929 62  
19930 4   
19931 4   
19932 4   
19933 1   
19934 2   
19935 2   
19936 74  
19937 10  
19938 98  
19939 6   
19940 10  
19941 72  
19942 75  
19943 9   
19944 2   
19945 10  
19946 2   
19947 94  
19948 57  
19949 83  
19950 3   
19951 62  
19952 1   
19953 4   
19954 78  
19955 5   
19956 8   
19957 6   
19958 10  
19959 3   
19960 8   
19961 6   
19962 4   
19963 8   
19964 1   
19965 1   
19966 1   
19967 6   
19968 98  
19969 9   
19970 7   
19971 9   
19972 4   
19973 6   
19974 3   
19975 4   
19976 2   
19977 2   
19978 4   
19979 7   
19980 3   
19981 9   
19982 57  
19983 3   
19984 2   
19985 1   
19986 8   
19987 10  
19988 8   
19989 10  
19990 6   
19991 2   
19992 8   
19993 6   
19994 6   
19995 8   
19996 9   
19997 10  
19998 5   
19999 8   
20000 7   
20001 2   
20002 69  
20003 8   
20004 2   
20005 93  
20006 9   
20007 51  
20008 8   
20009 7   
20010 2   
20011 3   
20012 8   
20013 3   
20014 54  
20015 10  
20016 7   
20017 7   
20018 74  
20019 5   
20020 57  
20021 2   
20022 94  
20023 1   
20024 1   
20025 2   
20026 8   
20027 1   
20028 10  
20029 6   
20030 6   
20031 2   
20032 3   
20033 3   
20034 2   
20035 59  
20036 9   
20037 4   
20038 10  
20039 8   
20040 4   
20041 5   
20042 4   
20043 1   
20044 61  
20045 57  
20046 57  
20047 4   
20048 9   
20049 9   
20050 7   
20051 7   
20052 3   
20053 8   
20054 10  
20055 7   
20056 71  
20057 86  
20058 7   
20059 1   
20060 90  
20061 3   
20062 6   
20063 9   
20064 10  
20065 7   
20066 5   
20067 8   
20068 3   
20069 2   
20070 57  
20071 55  
20072 57  
20073 6   
20074 8   
20075 8   
20076 6   
20077 4   
20078 2   
20079 2   
20080 6   
20081 7   
20082 8   
20083 53  
20084 83  
20085 1   
20086 9   
20087 70  
20088 5   
20089 4   
20090 4   
20091 55  
20092 3   
20093 8   
20094 2   
20095 53  
20096 6   
20097 8   
20098 4   
20099 9   
20100 10  
20101 51  
20102 4   
20103 9   
20104 4   
20105 9   
20106 1   
20107 2   
20108 7   
20109 1   
20110 9   
20111 78  
20112 96  
20113 9   
20114 6   
20115 1   
20116 7   
20117 77  
20118 70  
20119 2   
20120 9   
20121 6   
20122 4   
20123 10  
20124 7   
20125 4   
20126 9   
20127 7   
20128 1   
20129 6   
20130 2   
20131 54  
20132 4   
20133 2   
20134 3   
20135 6   
20136 71  
20137 62  
20138 10  
20139 54  
20140 3   
20141 3   
20142 55  
20143 57  
20144 3   
20145 82  
20146 7   
20147 2   
20148 1   
20149 6   
20150 7   
20151 8   
20152 8   
20153 7   
20154 79  
20155 53  
20156 8   
20157 7   
20158 8   
20159 6   
20160 9   
20161 7   
20162 63  
20163 1   
20164 1   
20165 9   
20166 8   
20167 10  
20168 4   
20169 9   
20170 95  
20171 1   
20172 9   
20173 6   
20174 1   
20175 1   
20176 65  
20177 99  
20178 9   
20179 7   
20180 10  
20181 2   
20182 98  
20183 89  
20184 9   
20185 7   
20186 68  
20187 3   
20188 3   
20189 6   
20190 7   
20191 93  
20192 1   
20193 9   
20194 1   
20195 9   
20196 3   
20197 3   
20198 54  
20199 9   
20200 10  
20201 8   
20202 4   
20203 7   
20204 98  
20205 7   
20206 73  
20207 4   
20208 9   
20209 88  
20210 3   
20211 5   
20212 74  
20213 3   
20214 9   
20215 5   
20216 5   
20217 95  
20218 6   
20219 4   
20220 58  
20221 2   
20222 6   
20223 6   
20224 5   
20225 7   
20226 96  
20227 10  
20228 7   
20229 10  
20230 9   
20231 5   
20232 3   
20233 5   
20234 72  
20235 4   
20236 10  
20237 3   
20238 3   
20239 96  
20240 6   
20241 88  
20242 6   
20243 3   
20244 67  
20245 8   
20246 89  
20247 6   
20248 3   
20249 98  
20250 10  
20251 7   
20252 79  
20253 7   
20254 4   
20255 2   
20256 8   
20257 7   
20258 6   
20259 10  
20260 57  
20261 1   
20262 7   
20263 2   
20264 3   
20265 2   
20266 6   
20267 7   
20268 4   
20269 59  
20270 3   
20271 4   
20272 2   
20273 4   
20274 2   
20275 2   
20276 8   
20277 10  
20278 5   
20279 5   
20280 3   
20281 4   
20282 3   
20283 8   
20284 7   
20285 2   
20286 78  
20287 61  
20288 1   
20289 8   
20290 9   
20291 71  
20292 5   
20293 8   
20294 5   
20295 55  
20296 1   
20297 2   
20298 3   
20299 6   
20300 10  
20301 89  
20302 70  
20303 9   
20304 1   
20305 2   
20306 9   
20307 1   
20308 10  
20309 6   
20310 5   
20311 2   
20312 3   
20313 57  
20314 2   
20315 67  
20316 4   
20317 2   
20318 69  
20319 8   
20320 6   
20321 3   
20322 3   
20323 7   
20324 4   
20325 5   
20326 1   
20327 4   
20328 5   
20329 7   
20330 85  
20331 5   
20332 6   
20333 67  
20334 8   
20335 52  
20336 8   
20337 8   
20338 7   
20339 64  
20340 7   
20341 4   
20342 5   
20343 4   
20344 2   
20345 96  
20346 9   
20347 2   
20348 8   
20349 3   
20350 8   
20351 4   
20352 6   
20353 1   
20354 5   
20355 4   
20356 4   
20357 1   
20358 2   
20359 97  
20360 70  
20361 7   
20362 1   
20363 1   
20364 50  
20365 85  
20366 10  
20367 2   
20368 10  
20369 3   
20370 9   
20371 4   
20372 10  
20373 76  
20374 4   
20375 5   
20376 1   
20377 8   
20378 9   
20379 8   
20380 4   
20381 8   
20382 7   
20383 6   
20384 5   
20385 5   
20386 3   
20387 4   
20388 4   
20389 84  
20390 6   
20391 8   
20392 6   
20393 10  
20394 69  
20395 61  
20396 1   
20397 9   
20398 7   
20399 7   
20400 1   
20401 5   
20402 3   
20403 10  
20404 4   
20405 61  
20406 10  
20407 5   
20408 4   
20409 4   
20410 7   
20411 8   
20412 1   
20413 6   
20414 69  
20415 10  
20416 1   
20417 7   
20418 4   
20419 1   
20420 2   
20421 5   
20422 98  
20423 8   
20424 75  
20425 6   
20426 3   
20427 9   
20428 98  
20429 3   
20430 4   
20431 2   
20432 4   
20433 5   
20434 4   
20435 94  
20436 9   
20437 2   
20438 9   
20439 7   
20440 60  
20441 10  
20442 90  
20443 6   
20444 7   
20445 1   
20446 4   
20447 96  
20448 59  
20449 7   
20450 1   
20451 53  
20452 4   
20453 8   
20454 7   
20455 93  
20456 2   
20457 91  
20458 8   
20459 8   
20460 4   
20461 10  
20462 66  
20463 5   
20464 3   
20465 8   
20466 8   
20467 4   
20468 3   
20469 3   
20470 10  
20471 2   
20472 3   
20473 7   
20474 80  
20475 6   
20476 8   
20477 9   
20478 74  
20479 88  
20480 59  
20481 65  
20482 7   
20483 2   
20484 3   
20485 5   
20486 10  
20487 8   
20488 70  
20489 4   
20490 65  
20491 10  
20492 8   
20493 5   
20494 9   
20495 94  
20496 73  
20497 6   
20498 56  
20499 6   
20500 7   
20501 10  
20502 4   
20503 1   
20504 8   
20505 3   
20506 63  
20507 3   
20508 9   
20509 6   
20510 8   
20511 9   
20512 69  
20513 5   
20514 5   
20515 9   
20516 4   
20517 1   
20518 10  
20519 10  
20520 5   
20521 10  
20522 5   
20523 82  
20524 5   
20525 5   
20526 10  
20527 100 
20528 71  
20529 3   
20530 5   
20531 7   
20532 8   
20533 77  
20534 4   
20535 7   
20536 7   
20537 8   
20538 10  
20539 3   
20540 10  
20541 78  
20542 6   
20543 52  
20544 5   
20545 10  
20546 10  
20547 5   
20548 4   
20549 5   
20550 6   
20551 2   
20552 98  
20553 9   
20554 6   
20555 5   
20556 62  
20557 7   
20558 5   
20559 57  
20560 2   
20561 9   
20562 9   
20563 72  
20564 2   
20565 4   
20566 1   
20567 6   
20568 83  
20569 9   
20570 8   
20571 5   
20572 75  
20573 10  
20574 2   
20575 5   
20576 1   
20577 1   
20578 76  
20579 80  
20580 6   
20581 1   
20582 1   
20583 3   
20584 2   
20585 10  
20586 77  
20587 3   
20588 66  
20589 7   
20590 5   
20591 67  
20592 2   
20593 6   
20594 5   
20595 93  
20596 5   
20597 2   
20598 9   
20599 65  
20600 2   
20601 10  
20602 4   
20603 7   
20604 5   
20605 1   
20606 6   
20607 96  
20608 10  
20609 2   
20610 2   
20611 6   
20612 10  
20613 97  
20614 7   
20615 10  
20616 1   
20617 9   
20618 5   
20619 9   
20620 4   
20621 100 
20622 10  
20623 3   
20624 1   
20625 10  
20626 5   
20627 4   
20628 2   
20629 6   
20630 100 
20631 9   
20632 6   
20633 1   
20634 10  
20635 9   
20636 4   
20637 3   
20638 9   
20639 9   
20640 87  
20641 2   
20642 3   
20643 2   
20644 99  
20645 3   
20646 7   
20647 5   
20648 8   
20649 2   
20650 3   
20651 10  
20652 68  
20653 1   
20654 8   
20655 62  
20656 8   
20657 8   
20658 8   
20659 1   
20660 7   
20661 10  
20662 1   
20663 8   
20664 8   
20665 4   
20666 1   
20667 7   
20668 8   
20669 2   
20670 3   
20671 7   
20672 10  
20673 62  
20674 7   
20675 2   
20676 6   
20677 4   
20678 6   
20679 7   
20680 3   
20681 7   
20682 10  
20683 7   
20684 5   
20685 9   
20686 71  
20687 9   
20688 58  
20689 3   
20690 8   
20691 2   
20692 6   
20693 1   
20694 5   
20695 10  
20696 1   
20697 6   
20698 3   
20699 10  
20700 10  
20701 9   
20702 2   
20703 4   
20704 7   
20705 9   
20706 3   
20707 80  
20708 2   
20709 53  
20710 3   
20711 55  
20712 97  
20713 4   
20714 2   
20715 94  
20716 9   
20717 8   
20718 3   
20719 78  
20720 6   
20721 2   
20722 2   
20723 8   
20724 10  
20725 5   
20726 1   
20727 2   
20728 69  
20729 6   
20730 3   
20731 75  
20732 8   
20733 8   
20734 10  
20735 4   
20736 5   
20737 2   
20738 3   
20739 5   
20740 9   
20741 9   
20742 57  
20743 4   
20744 10  
20745 7   
20746 4   
20747 1   
20748 8   
20749 8   
20750 55  
20751 7   
20752 9   
20753 2   
20754 8   
20755 78  
20756 71  
20757 2   
20758 10  
20759 4   
20760 7   
20761 4   
20762 10  
20763 9   
20764 5   
20765 9   
20766 7   
20767 10  
20768 57  
20769 4   
20770 6   
20771 9   
20772 10  
20773 8   
20774 3   
20775 5   
20776 6   
20777 86  
20778 59  
20779 7   
20780 81  
20781 3   
20782 8   
20783 56  
20784 10  
20785 4   
20786 4   
20787 3   
20788 7   
20789 1   
20790 5   
20791 3   
20792 3   
20793 2   
20794 3   
20795 4   
20796 3   
20797 5   
20798 81  
20799 9   
20800 2   
20801 7   
20802 65  
20803 10  
20804 1   
20805 5   
20806 9   
20807 8   
20808 83  
20809 8   
20810 10  
20811 63  
20812 9   
20813 1   
20814 76  
20815 2   
20816 8   
20817 3   
20818 4   
20819 2   
20820 4   
20821 3   
20822 4   
20823 10  
20824 3   
20825 9   
20826 4   
20827 5   
20828 74  
20829 7   
20830 4   
20831 7   
20832 3   
20833 2   
20834 97  
20835 5   
20836 7   
20837 5   
20838 71  
20839 74  
20840 6   
20841 8   
20842 8   
20843 1   
20844 6   
20845 4   
20846 7   
20847 2   
20848 3   
20849 89  
20850 2   
20851 8   
20852 6   
20853 85  
20854 99  
20855 8   
20856 77  
20857 2   
20858 9   
20859 6   
20860 1   
20861 2   
20862 7   
20863 80  
20864 5   
20865 2   
20866 61  
20867 59  
20868 6   
20869 77  
20870 79  
20871 72  
20872 3   
20873 10  
20874 5   
20875 99  
20876 2   
20877 89  
20878 6   
20879 4   
20880 9   
20881 10  
20882 7   
20883 9   
20884 1   
20885 4   
20886 10  
20887 10  
20888 2   
20889 3   
20890 5   
20891 8   
20892 3   
20893 1   
20894 8   
20895 1   
20896 90  
20897 5   
20898 50  
20899 89  
20900 7   
20901 9   
20902 5   
20903 1   
20904 7   
20905 9   
20906 8   
20907 10  
20908 4   
20909 9   
20910 3   
20911 3   
20912 10  
20913 1   
20914 1   
20915 9   
20916 52  
20917 4   
20918 78  
20919 1   
20920 1   
20921 10  
20922 57  
20923 1   
20924 8   
20925 6   
20926 5   
20927 8   
20928 1   
20929 6   
20930 8   
20931 7   
20932 5   
20933 10  
20934 7   
20935 3   
20936 7   
20937 61  
20938 4   
20939 6   
20940 2   
20941 65  
20942 8   
20943 9   
20944 7   
20945 6   
20946 2   
20947 7   
20948 3   
20949 1   
20950 1   
20951 6   
20952 8   
20953 6   
20954 2   
20955 5   
20956 95  
20957 6   
20958 7   
20959 10  
20960 10  
20961 3   
20962 1   
20963 1   
20964 86  
20965 2   
20966 99  
20967 5   
20968 2   
20969 10  
20970 2   
20971 1   
20972 98  
20973 81  
20974 1   
20975 4   
20976 8   
20977 6   
20978 8   
20979 59  
20980 6   
20981 6   
20982 1   
20983 62  
20984 74  
20985 9   
20986 3   
20987 9   
20988 75  
20989 77  
20990 4   
20991 10  
20992 89  
20993 100 
20994 6   
20995 5   
20996 8   
20997 7   
20998 5   
20999 7   
21000 1   
21001 6   
21002 10  
21003 7   
21004 8   
21005 5   
21006 10  
21007 3   
21008 2   
21009 56  
21010 80  
21011 5   
21012 4   
21013 74  
21014 97  
21015 1   
21016 9   
21017 5   
21018 1   
21019 7   
21020 78  
21021 2   
21022 5   
21023 1   
21024 66  
21025 4   
21026 8   
21027 10  
21028 10  
21029 9   
21030 9   
21031 9   
21032 76  
21033 3   
21034 2   
21035 3   
21036 8   
21037 9   
21038 93  
21039 4   
21040 3   
21041 82  
21042 3   
21043 8   
21044 6   
21045 1   
21046 10  
21047 6   
21048 7   
21049 5   
21050 72  
21051 1   
21052 8   
21053 2   
21054 7   
21055 7   
21056 1   
21057 66  
21058 2   
21059 2   
21060 50  
21061 4   
21062 9   
21063 10  
21064 88  
21065 7   
21066 4   
21067 5   
21068 2   
21069 5   
21070 71  
21071 62  
21072 58  
21073 5   
21074 10  
21075 7   
21076 4   
21077 4   
21078 2   
21079 1   
21080 10  
21081 2   
21082 4   
21083 4   
21084 50  
21085 5   
21086 10  
21087 2   
21088 10  
21089 6   
21090 61  
21091 9   
21092 90  
21093 2   
21094 6   
21095 3   
21096 2   
21097 98  
21098 3   
21099 7   
21100 8   
21101 9   
21102 66  
21103 4   
21104 51  
21105 2   
21106 2   
21107 61  
21108 5   
21109 1   
21110 10  
21111 4   
21112 2   
21113 8   
21114 7   
21115 6   
21116 83  
21117 84  
21118 72  
21119 3   
21120 8   
21121 8   
21122 50  
21123 3   
21124 9   
21125 8   
21126 10  
21127 6   
21128 79  
21129 54  
21130 5   
21131 5   
21132 5   
21133 7   
21134 3   
21135 1   
21136 99  
21137 6   
21138 50  
21139 5   
21140 84  
21141 6   
21142 50  
21143 2   
21144 9   
21145 9   
21146 6   
21147 5   
21148 9   
21149 8   
21150 3   
21151 94  
21152 84  
21153 5   
21154 7   
21155 2   
21156 51  
21157 4   
21158 1   
21159 7   
21160 8   
21161 9   
21162 62  
21163 2   
21164 4   
21165 58  
21166 4   
21167 6   
21168 10  
21169 9   
21170 10  
21171 4   
21172 5   
21173 3   
21174 5   
21175 9   
21176 8   
21177 9   
21178 9   
21179 9   
21180 10  
21181 10  
21182 8   
21183 1   
21184 10  
21185 4   
21186 3   
21187 5   
21188 91  
21189 1   
21190 5   
21191 55  
21192 10  
21193 1   
21194 8   
21195 9   
21196 6   
21197 77  
21198 6   
21199 10  
21200 9   
21201 72  
21202 6   
21203 3   
21204 8   
21205 8   
21206 55  
21207 5   
21208 5   
21209 4   
21210 4   
21211 5   
21212 2   
21213 8   
21214 5   
21215 4   
21216 1   
21217 9   
21218 64  
21219 2   
21220 10  
21221 9   
21222 6   
21223 65  
21224 10  
21225 8   
21226 8   
21227 8   
21228 6   
21229 1   
21230 10  
21231 2   
21232 66  
21233 1   
21234 1   
21235 93  
21236 93  
21237 2   
21238 10  
21239 5   
21240 3   
21241 10  
21242 63  
21243 10  
21244 2   
21245 8   
21246 6   
21247 60  
21248 5   
21249 4   
21250 7   
21251 6   
21252 9   
21253 7   
21254 8   
21255 52  
21256 7   
21257 55  
21258 4   
21259 1   
21260 8   
21261 6   
21262 8   
21263 78  
21264 4   
21265 1   
21266 100 
21267 60  
21268 2   
21269 84  
21270 10  
21271 10  
21272 5   
21273 4   
21274 6   
21275 88  
21276 6   
21277 5   
21278 4   
21279 10  
21280 1   
21281 4   
21282 3   
21283 5   
21284 9   
21285 91  
21286 2   
21287 1   
21288 2   
21289 7   
21290 5   
21291 7   
21292 100 
21293 10  
21294 1   
21295 3   
21296 3   
21297 8   
21298 4   
21299 5   
21300 10  
21301 1   
21302 6   
21303 1   
21304 2   
21305 70  
21306 10  
21307 2   
21308 2   
21309 1   
21310 10  
21311 3   
21312 90  
21313 3   
21314 1   
21315 5   
21316 3   
21317 9   
21318 4   
21319 9   
21320 10  
21321 8   
21322 10  
21323 6   
21324 1   
21325 3   
21326 8   
21327 7   
21328 3   
21329 10  
21330 10  
21331 4   
21332 6   
21333 1   
21334 94  
21335 95  
21336 1   
21337 5   
21338 1   
21339 1   
21340 2   
21341 8   
21342 5   
21343 8   
21344 10  
21345 7   
21346 2   
21347 1   
21348 10  
21349 9   
21350 9   
21351 9   
21352 4   
21353 3   
21354 5   
21355 1   
21356 8   
21357 2   
21358 3   
21359 5   
21360 96  
21361 90  
21362 8   
21363 9   
21364 70  
21365 57  
21366 8   
21367 71  
21368 5   
21369 95  
21370 2   
21371 3   
21372 6   
21373 5   
21374 5   
21375 1   
21376 10  
21377 50  
21378 5   
21379 2   
21380 4   
21381 6   
21382 71  
21383 4   
21384 10  
21385 4   
21386 2   
21387 10  
21388 3   
21389 9   
21390 7   
21391 9   
21392 6   
21393 1   
21394 1   
21395 94  
21396 87  
21397 6   
21398 1   
21399 8   
21400 7   
21401 52  
21402 5   
21403 98  
21404 57  
21405 9   
21406 6   
21407 5   
21408 67  
21409 10  
21410 5   
21411 3   
21412 6   
21413 9   
21414 1   
21415 7   
21416 9   
21417 60  
21418 7   
21419 7   
21420 58  
21421 5   
21422 10  
21423 9   
21424 7   
21425 7   
21426 1   
21427 83  
21428 3   
21429 3   
21430 8   
21431 7   
21432 5   
21433 2   
21434 4   
21435 85  
21436 6   
21437 91  
21438 6   
21439 3   
21440 51  
21441 8   
21442 3   
21443 6   
21444 4   
21445 2   
21446 84  
21447 60  
21448 2   
21449 8   
21450 4   
21451 4   
21452 1   
21453 71  
21454 7   
21455 10  
21456 6   
21457 1   
21458 59  
21459 2   
21460 3   
21461 60  
21462 56  
21463 91  
21464 91  
21465 58  
21466 60  
21467 10  
21468 5   
21469 5   
21470 6   
21471 94  
21472 10  
21473 1   
21474 9   
21475 1   
21476 3   
21477 1   
21478 4   
21479 9   
21480 79  
21481 9   
21482 6   
21483 2   
21484 3   
21485 3   
21486 3   
21487 9   
21488 69  
21489 2   
21490 1   
21491 9   
21492 1   
21493 6   
21494 54  
21495 2   
21496 5   
21497 3   
21498 7   
21499 8   
21500 57  
21501 4   
21502 5   
21503 87  
21504 3   
21505 3   
21506 3   
21507 6   
21508 77  
21509 79  
21510 9   
21511 8   
21512 95  
21513 10  
21514 10  
21515 5   
21516 10  
21517 10  
21518 3   
21519 6   
21520 6   
21521 3   
21522 62  
21523 8   
21524 10  
21525 10  
21526 1   
21527 64  
21528 77  
21529 3   
21530 7   
21531 6   
21532 71  
21533 2   
21534 81  
21535 5   
21536 98  
21537 4   
21538 1   
21539 6   
21540 64  
21541 98  
21542 3   
21543 9   
21544 2   
21545 1   
21546 10  
21547 1   
21548 5   
21549 4   
21550 96  
21551 8   
21552 8   
21553 3   
21554 2   
21555 5   
21556 70  
21557 8   
21558 6   
21559 1   
21560 1   
21561 7   
21562 2   
21563 6   
21564 86  
21565 7   
21566 9   
21567 6   
21568 1   
21569 2   
21570 3   
21571 64  
21572 82  
21573 7   
21574 9   
21575 7   
21576 2   
21577 5   
21578 99  
21579 92  
21580 2   
21581 9   
21582 6   
21583 54  
21584 76  
21585 5   
21586 2   
21587 2   
21588 55  
21589 4   
21590 10  
21591 5   
21592 8   
21593 4   
21594 1   
21595 10  
21596 2   
21597 1   
21598 7   
21599 86  
21600 10  
21601 2   
21602 6   
21603 8   
21604 8   
21605 8   
21606 7   
21607 4   
21608 6   
21609 5   
21610 5   
21611 4   
21612 3   
21613 8   
21614 7   
21615 3   
21616 2   
21617 3   
21618 7   
21619 6   
21620 77  
21621 10  
21622 69  
21623 1   
21624 10  
21625 8   
21626 6   
21627 10  
21628 9   
21629 98  
21630 7   
21631 1   
21632 8   
21633 10  
21634 63  
21635 2   
21636 6   
21637 2   
21638 6   
21639 3   
21640 4   
21641 1   
21642 9   
21643 6   
21644 3   
21645 89  
21646 9   
21647 85  
21648 3   
21649 7   
21650 5   
21651 1   
21652 3   
21653 93  
21654 1   
21655 5   
21656 2   
21657 67  
21658 54  
21659 9   
21660 1   
21661 82  
21662 10  
21663 55  
21664 5   
21665 2   
21666 1   
21667 1   
21668 4   
21669 7   
21670 7   
21671 2   
21672 4   
21673 56  
21674 3   
21675 9   
21676 8   
21677 3   
21678 61  
21679 5   
21680 2   
21681 7   
21682 2   
21683 1   
21684 99  
21685 8   
21686 6   
21687 10  
21688 1   
21689 2   
21690 5   
21691 7   
21692 7   
21693 9   
21694 71  
21695 2   
21696 8   
21697 6   
21698 52  
21699 4   
21700 86  
21701 6   
21702 3   
21703 4   
21704 7   
21705 9   
21706 10  
21707 9   
21708 5   
21709 3   
21710 6   
21711 55  
21712 3   
21713 7   
21714 9   
21715 1   
21716 63  
21717 9   
21718 6   
21719 8   
21720 8   
21721 9   
21722 5   
21723 90  
21724 2   
21725 7   
21726 10  
21727 6   
21728 3   
21729 1   
21730 7   
21731 8   
21732 3   
21733 4   
21734 1   
21735 2   
21736 8   
21737 7   
21738 10  
21739 1   
21740 9   
21741 9   
21742 58  
21743 2   
21744 66  
21745 10  
21746 10  
21747 4   
21748 8   
21749 10  
21750 4   
21751 9   
21752 6   
21753 1   
21754 96  
21755 9   
21756 10  
21757 9   
21758 63  
21759 59  
21760 87  
21761 3   
21762 5   
21763 3   
21764 8   
21765 7   
21766 96  
21767 4   
21768 10  
21769 5   
21770 3   
21771 7   
21772 54  
21773 62  
21774 81  
21775 68  
21776 9   
21777 79  
21778 4   
21779 4   
21780 10  
21781 7   
21782 100 
21783 4   
21784 7   
21785 60  
21786 3   
21787 3   
21788 95  
21789 9   
21790 6   
21791 72  
21792 1   
21793 80  
21794 10  
21795 69  
21796 99  
21797 9   
21798 9   
21799 9   
21800 8   
21801 9   
21802 8   
21803 5   
21804 1   
21805 5   
21806 8   
21807 7   
21808 7   
21809 1   
21810 80  
21811 3   
21812 56  
21813 99  
21814 3   
21815 83  
21816 6   
21817 7   
21818 9   
21819 1   
21820 6   
21821 62  
21822 9   
21823 3   
21824 8   
21825 8   
21826 8   
21827 6   
21828 6   
21829 8   
21830 9   
21831 2   
21832 2   
21833 4   
21834 9   
21835 58  
21836 89  
21837 3   
21838 52  
21839 10  
21840 4   
21841 3   
21842 2   
21843 9   
21844 7   
21845 3   
21846 88  
21847 7   
21848 2   
21849 8   
21850 56  
21851 1   
21852 3   
21853 2   
21854 6   
21855 55  
21856 9   
21857 73  
21858 2   
21859 1   
21860 1   
21861 2   
21862 92  
21863 3   
21864 1   
21865 51  
21866 8   
21867 2   
21868 1   
21869 4   
21870 3   
21871 90  
21872 50  
21873 6   
21874 10  
21875 98  
21876 7   
21877 7   
21878 78  
21879 73  
21880 8   
21881 3   
21882 9   
21883 9   
21884 7   
21885 7   
21886 9   
21887 79  
21888 6   
21889 7   
21890 94  
21891 8   
21892 9   
21893 94  
21894 6   
21895 4   
21896 77  
21897 8   
21898 8   
21899 7   
21900 4   
21901 10  
21902 3   
21903 100 
21904 55  
21905 56  
21906 6   
21907 8   
21908 10  
21909 1   
21910 5   
21911 3   
21912 1   
21913 10  
21914 6   
21915 9   
21916 10  
21917 7   
21918 5   
21919 9   
21920 3   
21921 10  
21922 9   
21923 10  
21924 9   
21925 9   
21926 86  
21927 3   
21928 9   
21929 10  
21930 10  
21931 8   
21932 10  
21933 7   
21934 7   
21935 8   
21936 9   
21937 8   
21938 76  
21939 1   
21940 9   
21941 7   
21942 5   
21943 5   
21944 52  
21945 9   
21946 1   
21947 2   
21948 69  
21949 6   
21950 82  
21951 9   
21952 66  
21953 10  
21954 2   
21955 3   
21956 5   
21957 2   
21958 10  
21959 10  
21960 2   
21961 4   
21962 9   
21963 10  
21964 4   
21965 85  
21966 6   
21967 9   
21968 1   
21969 92  
21970 9   
21971 5   
21972 9   
21973 7   
21974 4   
21975 88  
21976 6   
21977 9   
21978 1   
21979 2   
21980 69  
21981 6   
21982 2   
21983 9   
21984 9   
21985 1   
21986 88  
21987 77  
21988 6   
21989 3   
21990 9   
21991 69  
21992 6   
21993 2   
21994 3   
21995 2   
21996 9   
21997 10  
21998 3   
21999 7   
22000 9   
22001 4   
22002 9   
22003 7   
22004 7   
22005 7   
22006 54  
22007 92  
22008 5   
22009 4   
22010 9   
22011 2   
22012 3   
22013 10  
22014 87  
22015 7   
22016 8   
22017 5   
22018 75  
22019 5   
22020 5   
22021 4   
22022 9   
22023 6   
22024 9   
22025 8   
22026 63  
22027 6   
22028 2   
22029 96  
22030 10  
22031 7   
22032 7   
22033 79  
22034 7   
22035 8   
22036 3   
22037 98  
22038 7   
22039 8   
22040 2   
22041 3   
22042 9   
22043 1   
22044 1   
22045 1   
22046 3   
22047 98  
22048 2   
22049 82  
22050 2   
22051 8   
22052 8   
22053 8   
22054 10  
22055 8   
22056 84  
22057 10  
22058 9   
22059 6   
22060 10  
22061 9   
22062 4   
22063 8   
22064 2   
22065 3   
22066 55  
22067 1   
22068 4   
22069 9   
22070 78  
22071 9   
22072 8   
22073 3   
22074 5   
22075 1   
22076 10  
22077 1   
22078 5   
22079 3   
22080 6   
22081 2   
22082 5   
22083 63  
22084 8   
22085 3   
22086 96  
22087 2   
22088 7   
22089 6   
22090 60  
22091 75  
22092 7   
22093 9   
22094 4   
22095 81  
22096 6   
22097 7   
22098 81  
22099 3   
22100 81  
22101 73  
22102 50  
22103 9   
22104 8   
22105 72  
22106 5   
22107 1   
22108 4   
22109 4   
22110 6   
22111 2   
22112 3   
22113 4   
22114 8   
22115 56  
22116 10  
22117 3   
22118 10  
22119 8   
22120 3   
22121 4   
22122 3   
22123 94  
22124 8   
22125 8   
22126 3   
22127 3   
22128 5   
22129 3   
22130 8   
22131 5   
22132 1   
22133 83  
22134 86  
22135 7   
22136 2   
22137 8   
22138 6   
22139 7   
22140 3   
22141 10  
22142 2   
22143 8   
22144 9   
22145 5   
22146 6   
22147 4   
22148 5   
22149 9   
22150 1   
22151 7   
22152 60  
22153 71  
22154 89  
22155 9   
22156 10  
22157 5   
22158 9   
22159 6   
22160 8   
22161 6   
22162 52  
22163 71  
22164 8   
22165 3   
22166 8   
22167 1   
22168 3   
22169 9   
22170 2   
22171 67  
22172 93  
22173 2   
22174 8   
22175 10  
22176 77  
22177 3   
22178 6   
22179 10  
22180 2   
22181 3   
22182 89  
22183 71  
22184 3   
22185 4   
22186 3   
22187 5   
22188 9   
22189 9   
22190 10  
22191 6   
22192 9   
22193 6   
22194 10  
22195 5   
22196 8   
22197 4   
22198 97  
22199 5   
22200 2   
22201 2   
22202 10  
22203 5   
22204 6   
22205 4   
22206 2   
22207 9   
22208 1   
22209 10  
22210 5   
22211 10  
22212 4   
22213 10  
22214 10  
22215 75  
22216 2   
22217 5   
22218 5   
22219 4   
22220 7   
22221 5   
22222 3   
22223 8   
22224 10  
22225 8   
22226 56  
22227 2   
22228 3   
22229 4   
22230 6   
22231 8   
22232 10  
22233 52  
22234 8   
22235 69  
22236 5   
22237 9   
22238 52  
22239 5   
22240 10  
22241 1   
22242 8   
22243 8   
22244 7   
22245 3   
22246 7   
22247 2   
22248 87  
22249 1   
22250 1   
22251 9   
22252 1   
22253 1   
22254 6   
22255 3   
22256 62  
22257 71  
22258 9   
22259 10  
22260 8   
22261 7   
22262 81  
22263 7   
22264 8   
22265 100 
22266 2   
22267 3   
22268 87  
22269 8   
22270 6   
22271 2   
22272 2   
22273 9   
22274 4   
22275 52  
22276 53  
22277 2   
22278 5   
22279 63  
22280 10  
22281 10  
22282 3   
22283 4   
22284 5   
22285 9   
22286 10  
22287 1   
22288 75  
22289 7   
22290 7   
22291 10  
22292 10  
22293 97  
22294 2   
22295 6   
22296 8   
22297 2   
22298 2   
22299 3   
22300 2   
22301 3   
22302 87  
22303 4   
22304 2   
22305 1   
22306 10  
22307 5   
22308 4   
22309 10  
22310 10  
22311 6   
22312 3   
22313 3   
22314 9   
22315 8   
22316 7   
22317 69  
22318 2   
22319 8   
22320 87  
22321 3   
22322 1   
22323 99  
22324 8   
22325 82  
22326 6   
22327 1   
22328 81  
22329 2   
22330 10  
22331 9   
22332 54  
22333 1   
22334 75  
22335 4   
22336 8   
22337 50  
22338 65  
22339 3   
22340 2   
22341 2   
22342 2   
22343 1   
22344 53  
22345 8   
22346 6   
22347 3   
22348 9   
22349 7   
22350 65  
22351 4   
22352 10  
22353 10  
22354 2   
22355 1   
22356 10  
22357 9   
22358 6   
22359 1   
22360 4   
22361 6   
22362 10  
22363 2   
22364 6   
22365 9   
22366 7   
22367 1   
22368 61  
22369 3   
22370 3   
22371 6   
22372 9   
22373 1   
22374 9   
22375 61  
22376 72  
22377 2   
22378 5   
22379 9   
22380 10  
22381 2   
22382 79  
22383 5   
22384 95  
22385 10  
22386 6   
22387 7   
22388 5   
22389 94  
22390 10  
22391 5   
22392 8   
22393 3   
22394 5   
22395 2   
22396 2   
22397 7   
22398 91  
22399 6   
22400 3   
22401 9   
22402 9   
22403 4   
22404 6   
22405 7   
22406 6   
22407 3   
22408 7   
22409 89  
22410 4   
22411 9   
22412 1   
22413 4   
22414 7   
22415 5   
22416 8   
22417 10  
22418 69  
22419 4   
22420 3   
22421 6   
22422 5   
22423 5   
22424 6   
22425 2   
22426 10  
22427 6   
22428 5   
22429 5   
22430 4   
22431 5   
22432 9   
22433 1   
22434 8   
22435 4   
22436 8   
22437 8   
22438 3   
22439 3   
22440 3   
22441 2   
22442 9   
22443 3   
22444 3   
22445 7   
22446 1   
22447 9   
22448 67  
22449 2   
22450 7   
22451 10  
22452 1   
22453 3   
22454 9   
22455 64  
22456 6   
22457 3   
22458 1   
22459 2   
22460 6   
22461 1   
22462 64  
22463 84  
22464 6   
22465 6   
22466 4   
22467 10  
22468 2   
22469 5   
22470 7   
22471 8   
22472 51  
22473 5   
22474 4   
22475 7   
22476 5   
22477 81  
22478 8   
22479 63  
22480 95  
22481 10  
22482 4   
22483 52  
22484 7   
22485 6   
22486 6   
22487 5   
22488 10  
22489 71  
22490 51  
22491 2   
22492 3   
22493 10  
22494 3   
22495 7   
22496 82  
22497 78  
22498 81  
22499 79  
22500 4   
22501 10  
22502 9   
22503 2   
22504 1   
22505 7   
22506 58  
22507 3   
22508 6   
22509 2   
22510 83  
22511 9   
22512 2   
22513 72  
22514 2   
22515 5   
22516 7   
22517 8   
22518 2   
22519 7   
22520 5   
22521 10  
22522 7   
22523 10  
22524 6   
22525 99  
22526 6   
22527 94  
22528 1   
22529 78  
22530 96  
22531 7   
22532 6   
22533 9   
22534 9   
22535 9   
22536 5   
22537 4   
22538 51  
22539 5   
22540 7   
22541 9   
22542 5   
22543 2   
22544 10  
22545 89  
22546 6   
22547 9   
22548 6   
22549 9   
22550 9   
22551 3   
22552 100 
22553 58  
22554 9   
22555 7   
22556 8   
22557 2   
22558 1   
22559 94  
22560 9   
22561 80  
22562 4   
22563 75  
22564 83  
22565 9   
22566 56  
22567 3   
22568 62  
22569 1   
22570 5   
22571 1   
22572 74  
22573 9   
22574 2   
22575 2   
22576 8   
22577 7   
22578 71  
22579 7   
22580 5   
22581 3   
22582 5   
22583 8   
22584 3   
22585 85  
22586 6   
22587 64  
22588 5   
22589 10  
22590 6   
22591 6   
22592 71  
22593 4   
22594 99  
22595 1   
22596 4   
22597 8   
22598 1   
22599 5   
22600 3   
22601 7   
22602 69  
22603 1   
22604 2   
22605 95  
22606 5   
22607 5   
22608 7   
22609 7   
22610 3   
22611 7   
22612 54  
22613 9   
22614 76  
22615 5   
22616 6   
22617 5   
22618 2   
22619 4   
22620 2   
22621 6   
22622 4   
22623 1   
22624 7   
22625 9   
22626 57  
22627 2   
22628 10  
22629 2   
22630 1   
22631 2   
22632 7   
22633 6   
22634 5   
22635 10  
22636 65  
22637 7   
22638 4   
22639 6   
22640 2   
22641 10  
22642 9   
22643 2   
22644 8   
22645 2   
22646 4   
22647 53  
22648 6   
22649 5   
22650 8   
22651 93  
22652 1   
22653 71  
22654 3   
22655 65  
22656 10  
22657 10  
22658 60  
22659 8   
22660 8   
22661 9   
22662 2   
22663 3   
22664 84  
22665 8   
22666 7   
22667 6   
22668 9   
22669 9   
22670 1   
22671 5   
22672 67  
22673 6   
22674 4   
22675 58  
22676 91  
22677 7   
22678 89  
22679 10  
22680 3   
22681 1   
22682 3   
22683 5   
22684 10  
22685 8   
22686 6   
22687 63  
22688 5   
22689 73  
22690 3   
22691 7   
22692 9   
22693 5   
22694 1   
22695 6   
22696 10  
22697 100 
22698 72  
22699 5   
22700 3   
22701 10  
22702 1   
22703 7   
22704 5   
22705 10  
22706 56  
22707 7   
22708 7   
22709 86  
22710 9   
22711 100 
22712 5   
22713 1   
22714 3   
22715 6   
22716 8   
22717 2   
22718 4   
22719 1   
22720 8   
22721 67  
22722 2   
22723 68  
22724 59  
22725 2   
22726 5   
22727 7   
22728 4   
22729 2   
22730 9   
22731 6   
22732 59  
22733 5   
22734 1   
22735 9   
22736 5   
22737 2   
22738 73  
22739 87  
22740 10  
22741 8   
22742 7   
22743 4   
22744 9   
22745 2   
22746 8   
22747 6   
22748 1   
22749 6   
22750 4   
22751 56  
22752 7   
22753 8   
22754 10  
22755 7   
22756 5   
22757 3   
22758 6   
22759 3   
22760 9   
22761 10  
22762 99  
22763 4   
22764 8   
22765 53  
22766 60  
22767 3   
22768 8   
22769 5   
22770 4   
22771 8   
22772 8   
22773 10  
22774 10  
22775 7   
22776 8   
22777 4   
22778 62  
22779 100 
22780 9   
22781 6   
22782 6   
22783 3   
22784 1   
22785 1   
22786 3   
22787 1   
22788 4   
22789 51  
22790 2   
22791 3   
22792 3   
22793 6   
22794 8   
22795 2   
22796 10  
22797 7   
22798 73  
22799 2   
22800 7   
22801 9   
22802 9   
22803 10  
22804 6   
22805 7   
22806 10  
22807 10  
22808 10  
22809 77  
22810 1   
22811 78  
22812 10  
22813 6   
22814 2   
22815 2   
22816 6   
22817 10  
22818 4   
22819 7   
22820 69  
22821 8   
22822 6   
22823 6   
22824 5   
22825 82  
22826 4   
22827 96  
22828 5   
22829 82  
22830 4   
22831 9   
22832 2   
22833 4   
22834 5   
22835 56  
22836 6   
22837 8   
22838 5   
22839 10  
22840 5   
22841 2   
22842 10  
22843 78  
22844 5   
22845 8   
22846 4   
22847 7   
22848 72  
22849 8   
22850 6   
22851 69  
22852 98  
22853 100 
22854 10  
22855 1   
22856 4   
22857 3   
22858 8   
22859 10  
22860 5   
22861 4   
22862 4   
22863 70  
22864 7   
22865 1   
22866 9   
22867 10  
22868 3   
22869 8   
22870 76  
22871 5   
22872 66  
22873 10  
22874 10  
22875 2   
22876 1   
22877 7   
22878 81  
22879 82  
22880 94  
22881 10  
22882 5   
22883 7   
22884 10  
22885 97  
22886 4   
22887 8   
22888 7   
22889 8   
22890 6   
22891 3   
22892 4   
22893 7   
22894 6   
22895 1   
22896 6   
22897 7   
22898 5   
22899 9   
22900 5   
22901 5   
22902 3   
22903 4   
22904 6   
22905 5   
22906 9   
22907 51  
22908 9   
22909 2   
22910 6   
22911 9   
22912 8   
22913 10  
22914 9   
22915 5   
22916 10  
22917 9   
22918 10  
22919 9   
22920 5   
22921 8   
22922 3   
22923 1   
22924 1   
22925 2   
22926 8   
22927 5   
22928 9   
22929 8   
22930 5   
22931 70  
22932 74  
22933 1   
22934 8   
22935 73  
22936 71  
22937 1   
22938 7   
22939 7   
22940 2   
22941 8   
22942 9   
22943 7   
22944 5   
22945 4   
22946 3   
22947 4   
22948 7   
22949 10  
22950 55  
22951 8   
22952 10  
22953 88  
22954 3   
22955 2   
22956 8   
22957 5   
22958 9   
22959 3   
22960 9   
22961 6   
22962 7   
22963 59  
22964 3   
22965 89  
22966 4   
22967 9   
22968 4   
22969 9   
22970 1   
22971 4   
22972 7   
22973 4   
22974 6   
22975 70  
22976 10  
22977 4   
22978 7   
22979 5   
22980 74  
22981 7   
22982 9   
22983 61  
22984 6   
22985 96  
22986 10  
22987 3   
22988 3   
22989 8   
22990 67  
22991 4   
22992 8   
22993 68  
22994 2   
22995 9   
22996 51  
22997 84  
22998 57  
22999 3   
23000 87  
23001 3   
23002 2   
23003 2   
23004 8   
23005 6   
23006 9   
23007 87  
23008 3   
23009 60  
23010 3   
23011 2   
23012 3   
23013 5   
23014 6   
23015 91  
23016 1   
23017 6   
23018 9   
23019 6   
23020 1   
23021 2   
23022 8   
23023 3   
23024 1   
23025 5   
23026 84  
23027 4   
23028 59  
23029 9   
23030 9   
23031 6   
23032 4   
23033 3   
23034 4   
23035 95  
23036 10  
23037 1   
23038 7   
23039 2   
23040 6   
23041 9   
23042 2   
23043 3   
23044 6   
23045 6   
23046 51  
23047 86  
23048 5   
23049 1   
23050 7   
23051 10  
23052 70  
23053 10  
23054 2   
23055 9   
23056 2   
23057 7   
23058 5   
23059 4   
23060 68  
23061 98  
23062 5   
23063 1   
23064 2   
23065 4   
23066 4   
23067 4   
23068 4   
23069 1   
23070 1   
23071 3   
23072 5   
23073 4   
23074 2   
23075 71  
23076 6   
23077 4   
23078 4   
23079 4   
23080 5   
23081 9   
23082 3   
23083 81  
23084 89  
23085 2   
23086 3   
23087 10  
23088 7   
23089 1   
23090 7   
23091 10  
23092 8   
23093 9   
23094 58  
23095 8   
23096 6   
23097 4   
23098 9   
23099 2   
23100 96  
23101 69  
23102 8   
23103 9   
23104 9   
23105 7   
23106 3   
23107 7   
23108 5   
23109 92  
23110 7   
23111 57  
23112 2   
23113 2   
23114 59  
23115 62  
23116 10  
23117 8   
23118 6   
23119 10  
23120 5   
23121 5   
23122 55  
23123 9   
23124 7   
23125 4   
23126 9   
23127 10  
23128 10  
23129 79  
23130 8   
23131 7   
23132 8   
23133 10  
23134 1   
23135 6   
23136 6   
23137 5   
23138 68  
23139 6   
23140 1   
23141 72  
23142 10  
23143 10  
23144 5   
23145 53  
23146 8   
23147 6   
23148 3   
23149 3   
23150 9   
23151 6   
23152 9   
23153 3   
23154 9   
23155 1   
23156 6   
23157 4   
23158 1   
23159 10  
23160 9   
23161 2   
23162 81  
23163 4   
23164 5   
23165 8   
23166 8   
23167 81  
23168 6   
23169 1   
23170 7   
23171 8   
23172 4   
23173 8   
23174 4   
23175 4   
23176 8   
23177 10  
23178 4   
23179 3   
23180 7   
23181 5   
23182 9   
23183 6   
23184 2   
23185 5   
23186 1   
23187 6   
23188 3   
23189 1   
23190 10  
23191 91  
23192 5   
23193 2   
23194 3   
23195 3   
23196 9   
23197 4   
23198 10  
23199 6   
23200 10  
23201 5   
23202 66  
23203 4   
23204 99  
23205 6   
23206 3   
23207 7   
23208 8   
23209 83  
23210 2   
23211 3   
23212 10  
23213 2   
23214 2   
23215 7   
23216 7   
23217 10  
23218 2   
23219 92  
23220 1   
23221 1   
23222 9   
23223 6   
23224 7   
23225 79  
23226 2   
23227 88  
23228 7   
23229 7   
23230 6   
23231 2   
23232 6   
23233 6   
23234 9   
23235 7   
23236 7   
23237 97  
23238 10  
23239 7   
23240 56  
23241 5   
23242 2   
23243 9   
23244 2   
23245 5   
23246 74  
23247 88  
23248 10  
23249 3   
23250 52  
23251 69  
23252 3   
23253 4   
23254 1   
23255 1   
23256 4   
23257 9   
23258 74  
23259 1   
23260 1   
23261 1   
23262 87  
23263 5   
23264 8   
23265 7   
23266 4   
23267 9   
23268 8   
23269 10  
23270 7   
23271 10  
23272 1   
23273 5   
23274 5   
23275 8   
23276 5   
23277 5   
23278 8   
23279 6   
23280 2   
23281 5   
23282 7   
23283 5   
23284 8   
23285 9   
23286 6   
23287 3   
23288 1   
23289 7   
23290 62  
23291 2   
23292 9   
23293 8   
23294 2   
23295 9   
23296 10  
23297 2   
23298 10  
23299 6   
23300 6   
23301 4   
23302 88  
23303 4   
23304 5   
23305 63  
23306 7   
23307 88  
23308 61  
23309 6   
23310 8   
23311 55  
23312 8   
23313 6   
23314 9   
23315 2   
23316 6   
23317 6   
23318 63  
23319 5   
23320 59  
23321 1   
23322 9   
23323 3   
23324 8   
23325 1   
23326 3   
23327 6   
23328 1   
23329 5   
23330 8   
23331 2   
23332 10  
23333 10  
23334 6   
23335 10  
23336 10  
23337 9   
23338 4   
23339 8   
23340 9   
23341 6   
23342 8   
23343 68  
23344 1   
23345 6   
23346 3   
23347 5   
23348 6   
23349 6   
23350 4   
23351 1   
23352 8   
23353 1   
23354 7   
23355 1   
23356 10  
23357 67  
23358 1   
23359 4   
23360 2   
23361 7   
23362 4   
23363 7   
23364 84  
23365 7   
23366 10  
23367 5   
23368 1   
23369 7   
23370 9   
23371 1   
23372 4   
23373 1   
23374 70  
23375 94  
23376 2   
23377 2   
23378 71  
23379 4   
23380 3   
23381 6   
23382 10  
23383 10  
23384 4   
23385 94  
23386 5   
23387 3   
23388 3   
23389 8   
23390 1   
23391 65  
23392 5   
23393 8   
23394 3   
23395 6   
23396 6   
23397 9   
23398 5   
23399 10  
23400 71  
23401 10  
23402 7   
23403 5   
23404 8   
23405 1   
23406 6   
23407 9   
23408 1   
23409 3   
23410 1   
23411 5   
23412 9   
23413 92  
23414 84  
23415 10  
23416 2   
23417 5   
23418 88  
23419 7   
23420 3   
23421 54  
23422 1   
23423 3   
23424 7   
23425 5   
23426 9   
23427 1   
23428 9   
23429 87  
23430 9   
23431 69  
23432 8   
23433 67  
23434 4   
23435 3   
23436 8   
23437 6   
23438 82  
23439 5   
23440 9   
23441 1   
23442 10  
23443 7   
23444 79  
23445 7   
23446 6   
23447 7   
23448 10  
23449 7   
23450 3   
23451 7   
23452 8   
23453 9   
23454 5   
23455 7   
23456 57  
23457 7   
23458 88  
23459 7   
23460 6   
23461 3   
23462 5   
23463 10  
23464 4   
23465 5   
23466 6   
23467 8   
23468 5   
23469 8   
23470 4   
23471 2   
23472 6   
23473 9   
23474 7   
23475 1   
23476 4   
23477 2   
23478 4   
23479 8   
23480 6   
23481 64  
23482 1   
23483 2   
23484 76  
23485 2   
23486 9   
23487 7   
23488 3   
23489 9   
23490 4   
23491 1   
23492 2   
23493 10  
23494 58  
23495 8   
23496 9   
23497 1   
23498 9   
23499 8   
23500 4   
23501 5   
23502 8   
23503 5   
23504 73  
23505 3   
23506 8   
23507 3   
23508 2   
23509 9   
23510 58  
23511 6   
23512 5   
23513 6   
23514 10  
23515 9   
23516 98  
23517 3   
23518 8   
23519 10  
23520 4   
23521 10  
23522 3   
23523 9   
23524 7   
23525 7   
23526 2   
23527 6   
23528 2   
23529 4   
23530 9   
23531 4   
23532 87  
23533 10  
23534 91  
23535 66  
23536 2   
23537 70  
23538 1   
23539 4   
23540 9   
23541 59  
23542 1   
23543 9   
23544 6   
23545 8   
23546 5   
23547 59  
23548 7   
23549 6   
23550 8   
23551 2   
23552 9   
23553 63  
23554 10  
23555 8   
23556 54  
23557 8   
23558 1   
23559 7   
23560 8   
23561 9   
23562 4   
23563 1   
23564 6   
23565 81  
23566 9   
23567 100 
23568 9   
23569 7   
23570 8   
23571 7   
23572 3   
23573 1   
23574 10  
23575 72  
23576 98  
23577 4   
23578 2   
23579 8   
23580 6   
23581 79  
23582 76  
23583 4   
23584 8   
23585 8   
23586 1   
23587 91  
23588 10  
23589 69  
23590 96  
23591 2   
23592 5   
23593 3   
23594 1   
23595 10  
23596 59  
23597 4   
23598 71  
23599 4   
23600 8   
23601 6   
23602 7   
23603 53  
23604 9   
23605 4   
23606 8   
23607 5   
23608 59  
23609 7   
23610 6   
23611 5   
23612 4   
23613 1   
23614 65  
23615 10  
23616 6   
23617 8   
23618 4   
23619 5   
23620 2   
23621 5   
23622 3   
23623 10  
23624 2   
23625 97  
23626 1   
23627 6   
23628 3   
23629 5   
23630 1   
23631 2   
23632 4   
23633 4   
23634 9   
23635 7   
23636 2   
23637 78  
23638 9   
23639 5   
23640 8   
23641 99  
23642 1   
23643 1   
23644 4   
23645 9   
23646 1   
23647 3   
23648 6   
23649 1   
23650 83  
23651 10  
23652 9   
23653 2   
23654 8   
23655 2   
23656 7   
23657 9   
23658 5   
23659 10  
23660 5   
23661 1   
23662 8   
23663 10  
23664 5   
23665 2   
23666 10  
23667 2   
23668 2   
23669 4   
23670 91  
23671 10  
23672 2   
23673 6   
23674 10  
23675 8   
23676 6   
23677 7   
23678 8   
23679 90  
23680 5   
23681 5   
23682 5   
23683 5   
23684 7   
23685 5   
23686 9   
23687 7   
23688 7   
23689 3   
23690 90  
23691 8   
23692 5   
23693 6   
23694 7   
23695 6   
23696 4   
23697 8   
23698 2   
23699 8   
23700 1   
23701 62  
23702 4   
23703 6   
23704 80  
23705 1   
23706 5   
23707 8   
23708 74  
23709 3   
23710 4   
23711 8   
23712 7   
23713 3   
23714 4   
23715 6   
23716 93  
23717 2   
23718 9   
23719 7   
23720 4   
23721 75  
23722 1   
23723 4   
23724 7   
23725 8   
23726 6   
23727 3   
23728 4   
23729 3   
23730 81  
23731 1   
23732 10  
23733 7   
23734 2   
23735 63  
23736 78  
23737 9   
23738 7   
23739 1   
23740 6   
23741 6   
23742 6   
23743 10  
23744 1   
23745 78  
23746 70  
23747 5   
23748 7   
23749 10  
23750 91  
23751 88  
23752 7   
23753 6   
23754 5   
23755 2   
23756 10  
23757 3   
23758 89  
23759 5   
23760 57  
23761 2   
23762 4   
23763 3   
23764 81  
23765 2   
23766 9   
23767 2   
23768 9   
23769 8   
23770 9   
23771 7   
23772 75  
23773 7   
23774 10  
23775 96  
23776 10  
23777 2   
23778 6   
23779 6   
23780 7   
23781 7   
23782 9   
23783 2   
23784 1   
23785 10  
23786 1   
23787 6   
23788 53  
23789 2   
23790 3   
23791 10  
23792 6   
23793 5   
23794 87  
23795 6   
23796 82  
23797 4   
23798 4   
23799 8   
23800 2   
23801 5   
23802 6   
23803 8   
23804 73  
23805 1   
23806 4   
23807 79  
23808 8   
23809 90  
23810 10  
23811 10  
23812 65  
23813 10  
23814 60  
23815 4   
23816 7   
23817 7   
23818 3   
23819 6   
23820 6   
23821 70  
23822 4   
23823 2   
23824 100 
23825 3   
23826 3   
23827 1   
23828 7   
23829 10  
23830 79  
23831 85  
23832 2   
23833 4   
23834 3   
23835 6   
23836 10  
23837 51  
23838 1   
23839 2   
23840 10  
23841 6   
23842 5   
23843 7   
23844 7   
23845 4   
23846 9   
23847 8   
23848 5   
23849 5   
23850 3   
23851 8   
23852 4   
23853 59  
23854 54  
23855 4   
23856 7   
23857 3   
23858 7   
23859 9   
23860 1   
23861 64  
23862 7   
23863 69  
23864 56  
23865 60  
23866 10  
23867 7   
23868 5   
23869 5   
23870 6   
23871 10  
23872 65  
23873 4   
23874 2   
23875 99  
23876 2   
23877 5   
23878 1   
23879 71  
23880 52  
23881 1   
23882 3   
23883 51  
23884 5   
23885 6   
23886 99  
23887 10  
23888 3   
23889 1   
23890 59  
23891 8   
23892 2   
23893 5   
23894 3   
23895 8   
23896 95  
23897 71  
23898 6   
23899 87  
23900 5   
23901 4   
23902 9   
23903 9   
23904 10  
23905 5   
23906 2   
23907 64  
23908 4   
23909 67  
23910 6   
23911 2   
23912 8   
23913 3   
23914 98  
23915 8   
23916 76  
23917 3   
23918 8   
23919 8   
23920 3   
23921 4   
23922 2   
23923 52  
23924 9   
23925 60  
23926 6   
23927 85  
23928 7   
23929 59  
23930 3   
23931 76  
23932 8   
23933 8   
23934 3   
23935 6   
23936 6   
23937 5   
23938 4   
23939 2   
23940 7   
23941 10  
23942 8   
23943 1   
23944 3   
23945 4   
23946 9   
23947 95  
23948 10  
23949 1   
23950 99  
23951 2   
23952 4   
23953 6   
23954 10  
23955 88  
23956 10  
23957 8   
23958 2   
23959 72  
23960 4   
23961 6   
23962 73  
23963 6   
23964 96  
23965 3   
23966 7   
23967 3   
23968 3   
23969 3   
23970 4   
23971 67  
23972 10  
23973 5   
23974 6   
23975 3   
23976 5   
23977 1   
23978 8   
23979 8   
23980 97  
23981 10  
23982 1   
23983 6   
23984 100 
23985 91  
23986 9   
23987 3   
23988 2   
23989 3   
23990 3   
23991 6   
23992 5   
23993 5   
23994 5   
23995 61  
23996 4   
23997 4   
23998 3   
23999 3   
24000 4   
24001 1   
24002 2   
24003 10  
24004 3   
24005 81  
24006 59  
24007 7   
24008 10  
24009 1   
24010 87  
24011 7   
24012 83  
24013 7   
24014 75  
24015 62  
24016 3   
24017 10  
24018 8   
24019 4   
24020 1   
24021 50  
24022 3   
24023 3   
24024 6   
24025 7   
24026 10  
24027 1   
24028 7   
24029 90  
24030 5   
24031 59  
24032 1   
24033 10  
24034 10  
24035 6   
24036 9   
24037 3   
24038 2   
24039 10  
24040 6   
24041 7   
24042 1   
24043 2   
24044 1   
24045 10  
24046 3   
24047 5   
24048 96  
24049 6   
24050 1   
24051 8   
24052 1   
24053 8   
24054 1   
24055 9   
24056 7   
24057 2   
24058 6   
24059 53  
24060 91  
24061 9   
24062 9   
24063 8   
24064 2   
24065 3   
24066 5   
24067 2   
24068 6   
24069 8   
24070 1   
24071 63  
24072 7   
24073 4   
24074 5   
24075 7   
24076 5   
24077 8   
24078 2   
24079 6   
24080 3   
24081 5   
24082 98  
24083 5   
24084 5   
24085 7   
24086 96  
24087 7   
24088 99  
24089 89  
24090 6   
24091 56  
24092 60  
24093 6   
24094 7   
24095 2   
24096 76  
24097 4   
24098 10  
24099 9   
24100 4   
24101 1   
24102 7   
24103 1   
24104 66  
24105 89  
24106 5   
24107 51  
24108 6   
24109 68  
24110 59  
24111 3   
24112 5   
24113 8   
24114 3   
24115 1   
24116 10  
24117 5   
24118 9   
24119 10  
24120 6   
24121 8   
24122 8   
24123 1   
24124 90  
24125 8   
24126 5   
24127 86  
24128 5   
24129 3   
24130 10  
24131 57  
24132 10  
24133 10  
24134 62  
24135 86  
24136 10  
24137 75  
24138 9   
24139 74  
24140 6   
24141 5   
24142 6   
24143 10  
24144 65  
24145 10  
24146 3   
24147 1   
24148 7   
24149 8   
24150 50  
24151 5   
24152 7   
24153 8   
24154 7   
24155 66  
24156 1   
24157 7   
24158 78  
24159 2   
24160 64  
24161 79  
24162 8   
24163 8   
24164 9   
24165 8   
24166 10  
24167 71  
24168 4   
24169 2   
24170 1   
24171 4   
24172 9   
24173 1   
24174 8   
24175 7   
24176 6   
24177 63  
24178 2   
24179 51  
24180 55  
24181 10  
24182 7   
24183 71  
24184 2   
24185 2   
24186 8   
24187 3   
24188 3   
24189 4   
24190 3   
24191 8   
24192 9   
24193 4   
24194 85  
24195 5   
24196 8   
24197 7   
24198 3   
24199 5   
24200 2   
24201 10  
24202 75  
24203 2   
24204 8   
24205 1   
24206 90  
24207 2   
24208 4   
24209 67  
24210 52  
24211 71  
24212 53  
24213 6   
24214 9   
24215 3   
24216 3   
24217 1   
24218 6   
24219 9   
24220 2   
24221 7   
24222 1   
24223 3   
24224 3   
24225 2   
24226 8   
24227 6   
24228 70  
24229 3   
24230 7   
24231 6   
24232 3   
24233 2   
24234 5   
24235 71  
24236 5   
24237 9   
24238 59  
24239 7   
24240 1   
24241 78  
24242 73  
24243 8   
24244 10  
24245 8   
24246 6   
24247 90  
24248 5   
24249 2   
24250 6   
24251 69  
24252 6   
24253 10  
24254 5   
24255 3   
24256 9   
24257 9   
24258 9   
24259 10  
24260 86  
24261 10  
24262 2   
24263 72  
24264 2   
24265 8   
24266 67  
24267 51  
24268 71  
24269 5   
24270 7   
24271 88  
24272 5   
24273 10  
24274 1   
24275 7   
24276 3   
24277 3   
24278 9   
24279 61  
24280 90  
24281 55  
24282 5   
24283 3   
24284 9   
24285 1   
24286 100 
24287 8   
24288 5   
24289 4   
24290 73  
24291 4   
24292 2   
24293 7   
24294 5   
24295 4   
24296 9   
24297 1   
24298 2   
24299 8   
24300 5   
24301 53  
24302 10  
24303 6   
24304 2   
24305 54  
24306 7   
24307 1   
24308 10  
24309 9   
24310 2   
24311 10  
24312 4   
24313 94  
24314 77  
24315 5   
24316 66  
24317 4   
24318 6   
24319 66  
24320 3   
24321 4   
24322 8   
24323 3   
24324 7   
24325 5   
24326 3   
24327 3   
24328 3   
24329 7   
24330 8   
24331 3   
24332 3   
24333 5   
24334 68  
24335 53  
24336 4   
24337 1   
24338 3   
24339 1   
24340 9   
24341 3   
24342 1   
24343 97  
24344 1   
24345 65  
24346 2   
24347 6   
24348 7   
24349 70  
24350 1   
24351 8   
24352 65  
24353 8   
24354 3   
24355 10  
24356 2   
24357 69  
24358 4   
24359 9   
24360 8   
24361 7   
24362 99  
24363 5   
24364 10  
24365 8   
24366 5   
24367 61  
24368 7   
24369 10  
24370 1   
24371 1   
24372 71  
24373 2   
24374 71  
24375 6   
24376 93  
24377 6   
24378 7   
24379 1   
24380 57  
24381 9   
24382 7   
24383 9   
24384 2   
24385 6   
24386 9   
24387 3   
24388 1   
24389 8   
24390 54  
24391 10  
24392 59  
24393 10  
24394 5   
24395 2   
24396 9   
24397 7   
24398 55  
24399 10  
24400 7   
24401 6   
24402 57  
24403 10  
24404 2   
24405 9   
24406 8   
24407 56  
24408 75  
24409 7   
24410 3   
24411 7   
24412 3   
24413 10  
24414 98  
24415 9   
24416 6   
24417 7   
24418 5   
24419 3   
24420 3   
24421 1   
24422 4   
24423 52  
24424 7   
24425 76  
24426 10  
24427 1   
24428 7   
24429 1   
24430 6   
24431 9   
24432 3   
24433 4   
24434 2   
24435 3   
24436 4   
24437 6   
24438 94  
24439 2   
24440 9   
24441 6   
24442 9   
24443 52  
24444 3   
24445 58  
24446 1   
24447 4   
24448 78  
24449 88  
24450 6   
24451 72  
24452 6   
24453 5   
24454 3   
24455 51  
24456 9   
24457 1   
24458 2   
24459 7   
24460 75  
24461 6   
24462 10  
24463 1   
24464 3   
24465 2   
24466 65  
24467 60  
24468 3   
24469 3   
24470 10  
24471 4   
24472 60  
24473 3   
24474 100 
24475 82  
24476 9   
24477 10  
24478 2   
24479 5   
24480 9   
24481 6   
24482 7   
24483 7   
24484 3   
24485 1   
24486 92  
24487 2   
24488 7   
24489 2   
24490 70  
24491 3   
24492 4   
24493 8   
24494 8   
24495 53  
24496 9   
24497 4   
24498 8   
24499 99  
24500 5   
24501 1   
24502 6   
24503 1   
24504 8   
24505 84  
24506 9   
24507 6   
24508 8   
24509 9   
24510 4   
24511 6   
24512 5   
24513 6   
24514 59  
24515 6   
24516 5   
24517 6   
24518 5   
24519 5   
24520 1   
24521 10  
24522 9   
24523 88  
24524 2   
24525 2   
24526 1   
24527 3   
24528 4   
24529 79  
24530 9   
24531 3   
24532 7   
24533 8   
24534 1   
24535 3   
24536 1   
24537 9   
24538 5   
24539 65  
24540 9   
24541 89  
24542 5   
24543 91  
24544 9   
24545 6   
24546 4   
24547 8   
24548 4   
24549 9   
24550 10  
24551 1   
24552 2   
24553 6   
24554 82  
24555 1   
24556 8   
24557 97  
24558 2   
24559 9   
24560 9   
24561 79  
24562 7   
24563 3   
24564 2   
24565 2   
24566 98  
24567 5   
24568 6   
24569 2   
24570 9   
24571 100 
24572 9   
24573 10  
24574 8   
24575 8   
24576 10  
24577 7   
24578 9   
24579 9   
24580 8   
24581 9   
24582 4   
24583 7   
24584 2   
24585 7   
24586 5   
24587 1   
24588 2   
24589 4   
24590 87  
24591 68  
24592 7   
24593 84  
24594 1   
24595 80  
24596 5   
24597 75  
24598 3   
24599 9   
24600 4   
24601 7   
24602 98  
24603 1   
24604 6   
24605 1   
24606 10  
24607 3   
24608 65  
24609 4   
24610 8   
24611 9   
24612 8   
24613 9   
24614 3   
24615 10  
24616 97  
24617 10  
24618 83  
24619 7   
24620 6   
24621 4   
24622 6   
24623 5   
24624 1   
24625 92  
24626 10  
24627 5   
24628 9   
24629 98  
24630 82  
24631 2   
24632 5   
24633 10  
24634 8   
24635 4   
24636 10  
24637 10  
24638 50  
24639 2   
24640 8   
24641 81  
24642 6   
24643 5   
24644 75  
24645 8   
24646 5   
24647 10  
24648 8   
24649 67  
24650 100 
24651 8   
24652 6   
24653 9   
24654 3   
24655 4   
24656 65  
24657 4   
24658 3   
24659 6   
24660 4   
24661 9   
24662 10  
24663 6   
24664 8   
24665 1   
24666 4   
24667 4   
24668 2   
24669 7   
24670 4   
24671 5   
24672 10  
24673 8   
24674 8   
24675 3   
24676 4   
24677 6   
24678 50  
24679 1   
24680 6   
24681 86  
24682 73  
24683 5   
24684 2   
24685 6   
24686 6   
24687 6   
24688 10  
24689 56  
24690 8   
24691 5   
24692 2   
24693 9   
24694 8   
24695 92  
24696 3   
24697 7   
24698 3   
24699 7   
24700 7   
24701 8   
24702 6   
24703 77  
24704 2   
24705 7   
24706 10  
24707 8   
24708 10  
24709 1   
24710 4   
24711 74  
24712 2   
24713 4   
24714 5   
24715 67  
24716 100 
24717 10  
24718 2   
24719 5   
24720 5   
24721 4   
24722 1   
24723 1   
24724 66  
24725 3   
24726 4   
24727 2   
24728 10  
24729 5   
24730 9   
24731 4   
24732 9   
24733 10  
24734 3   
24735 96  
24736 3   
24737 2   
24738 9   
24739 1   
24740 96  
24741 10  
24742 3   
24743 5   
24744 5   
24745 8   
24746 8   
24747 6   
24748 10  
24749 52  
24750 4   
24751 8   
24752 4   
24753 10  
24754 8   
24755 8   
24756 1   
24757 5   
24758 10  
24759 8   
24760 4   
24761 7   
24762 4   
24763 10  
24764 1   
24765 63  
24766 6   
24767 10  
24768 9   
24769 89  
24770 5   
24771 9   
24772 5   
24773 7   
24774 9   
24775 3   
24776 9   
24777 3   
24778 2   
24779 2   
24780 10  
24781 1   
24782 4   
24783 3   
24784 10  
24785 5   
24786 2   
24787 2   
24788 3   
24789 73  
24790 8   
24791 57  
24792 8   
24793 7   
24794 4   
24795 3   
24796 7   
24797 9   
24798 2   
24799 4   
24800 86  
24801 54  
24802 6   
24803 9   
24804 5   
24805 94  
24806 9   
24807 8   
24808 81  
24809 10  
24810 2   
24811 10  
24812 5   
24813 7   
24814 1   
24815 10  
24816 2   
24817 6   
24818 7   
24819 1   
24820 8   
24821 3   
24822 6   
24823 1   
24824 82  
24825 4   
24826 1   
24827 4   
24828 7   
24829 7   
24830 7   
24831 1   
24832 9   
24833 10  
24834 5   
24835 8   
24836 7   
24837 4   
24838 84  
24839 1   
24840 95  
24841 82  
24842 2   
24843 5   
24844 54  
24845 96  
24846 5   
24847 1   
24848 5   
24849 95  
24850 6   
24851 7   
24852 9   
24853 9   
24854 1   
24855 7   
24856 66  
24857 4   
24858 10  
24859 7   
24860 5   
24861 10  
24862 4   
24863 9   
24864 2   
24865 3   
24866 4   
24867 5   
24868 6   
24869 4   
24870 6   
24871 7   
24872 3   
24873 7   
24874 10  
24875 9   
24876 3   
24877 66  
24878 2   
24879 5   
24880 9   
24881 95  
24882 5   
24883 9   
24884 8   
24885 4   
24886 92  
24887 10  
24888 81  
24889 5   
24890 2   
24891 6   
24892 7   
24893 1   
24894 3   
24895 75  
24896 77  
24897 8   
24898 5   
24899 6   
24900 4   
24901 3   
24902 6   
24903 6   
24904 3   
24905 3   
24906 62  
24907 6   
24908 99  
24909 2   
24910 67  
24911 8   
24912 4   
24913 4   
24914 7   
24915 5   
24916 2   
24917 8   
24918 5   
24919 6   
24920 2   
24921 7   
24922 5   
24923 82  
24924 88  
24925 10  
24926 7   
24927 7   
24928 5   
24929 91  
24930 72  
24931 7   
24932 5   
24933 6   
24934 2   
24935 2   
24936 5   
24937 2   
24938 1   
24939 4   
24940 8   
24941 3   
24942 8   
24943 4   
24944 2   
24945 1   
24946 9   
24947 1   
24948 10  
24949 2   
24950 7   
24951 4   
24952 85  
24953 73  
24954 9   
24955 9   
24956 8   
24957 10  
24958 58  
24959 2   
24960 2   
24961 3   
24962 7   
24963 92  
24964 8   
24965 3   
24966 3   
24967 9   
24968 8   
24969 3   
24970 10  
24971 9   
24972 10  
24973 3   
24974 61  
24975 5   
24976 51  
24977 4   
24978 3   
24979 4   
24980 8   
24981 10  
24982 1   
24983 3   
24984 54  
24985 68  
24986 3   
24987 1   
24988 4   
24989 63  
24990 2   
24991 7   
24992 2   
24993 9   
24994 9   
24995 1   
24996 7   
24997 3   
24998 90  
24999 9   
25000 3   
25001 1   
DEPOT_SECTION
1
-1
EOF
