NAME : XML25000_1176_01
COMMENT : Generated as the XML100 dataset from the CVRPLIB
TYPE : CVRP
DIMENSION : 25001
EDGE_WEIGHT_TYPE : EUC_2D
CAPACITY : 247
NODE_COORD_SECTION
1    7906 9471
2    4448 1301
3    1635 1212
4    8443 8169
5    7195 2748
6    2662 634 
7    2987 876 
8    2198 3829
9    3993 6205
10   2062 8223
11   4977 2375
12   318  7626
13   8724 8174
14   5458 5793
15   2792 1250
16   4037 9716
17   9720 4024
18   8661 1838
19   5913 4989
20   3472 2788
21   3951 9667
22   5601 8048
23   4259 7063
24   9544 9226
25   1017 857 
26   1200 4662
27   3338 6389
28   9251 6737
29   6019 9262
30   7344 8716
31   6197 7065
32   2602 3784
33   164  5863
34   4778 2375
35   9086 803 
36   6878 840 
37   1094 761 
38   2439 6544
39   3436 3510
40   9182 2657
41   3295 6344
42   7334 4369
43   9234 3681
44   794  5103
45   4868 4262
46   4652 9061
47   9766 9957
48   8348 8261
49   3649 7034
50   9261 9081
51   718  345 
52   110  5985
53   2517 3888
54   4909 1294
55   810  5926
56   7460 7748
57   6584 1027
58   131  1353
59   5747 1612
60   5497 2849
61   4340 4105
62   4252 4762
63   9479 6018
64   3524 3239
65   9393 8700
66   1499 5326
67   1906 8388
68   4370 4017
69   8028 7234
70   1421 1344
71   3631 1979
72   8381 4455
73   2400 282 
74   752  7071
75   5838 9703
76   8753 8831
77   233  542 
78   45   3683
79   4051 6085
80   6440 9085
81   3208 2940
82   2979 2714
83   4090 9743
84   2162 3254
85   4410 2817
86   3198 3996
87   9010 6162
88   8535 4598
89   9686 2675
90   403  833 
91   2795 8358
92   3363 3872
93   7246 1979
94   89   1153
95   4891 7746
96   9048 2768
97   3965 118 
98   7125 5407
99   3824 1370
100  5368 2039
101  4844 3092
102  8345 9918
103  6249 7338
104  8726 3659
105  4880 1550
106  2850 8580
107  9174 3125
108  6248 7810
109  577  8881
110  7639 3337
111  7819 4507
112  6072 6466
113  4708 6773
114  874  3761
115  4543 7593
116  5291 2622
117  617  3496
118  6375 3749
119  8895 9191
120  1148 4021
121  3863 8015
122  1722 7217
123  3697 5316
124  5471 9361
125  6944 9990
126  586  9240
127  6870 1865
128  9127 6335
129  8609 4673
130  2203 9302
131  7827 2933
132  4294 5256
133  766  5974
134  7898 7071
135  2544 7630
136  8337 8176
137  4408 6515
138  2808 2355
139  9186 5982
140  7134 2795
141  1501 6039
142  5492 9028
143  8474 1478
144  2522 428 
145  2564 4581
146  3773 576 
147  7840 7997
148  4244 333 
149  5866 8144
150  5258 4014
151  2441 5233
152  5716 2534
153  4591 9476
154  2957 5108
155  7126 9951
156  7314 4013
157  7812 5052
158  8375 6279
159  3008 9441
160  1877 2830
161  258  627 
162  8246 4428
163  5746 4110
164  6255 6293
165  465  2753
166  9669 5305
167  5431 1900
168  687  4279
169  4025 6714
170  9036 3016
171  4374 1677
172  8799 1107
173  4628 3940
174  6431 1   
175  3561 3335
176  1548 2081
177  6205 9619
178  4248 815 
179  6511 420 
180  1726 2215
181  5569 8769
182  2626 1094
183  5905 8979
184  2508 8910
185  8998 6356
186  4864 4971
187  7209 1374
188  4540 8814
189  6495 4724
190  3967 5940
191  118  3644
192  7959 9570
193  8247 4140
194  6597 8092
195  3190 8981
196  7559 646 
197  4316 28  
198  6504 5568
199  1911 751 
200  8324 3574
201  4687 2448
202  6257 5157
203  6629 784 
204  3071 6994
205  4712 6067
206  4594 444 
207  5405 9416
208  6026 8018
209  1565 2636
210  60   9236
211  1148 977 
212  7824 1348
213  1121 3959
214  6912 4878
215  3083 9313
216  8381 8899
217  4040 9308
218  6608 1105
219  5339 1722
220  7980 3534
221  3906 2519
222  7382 1219
223  2438 8068
224  1952 4186
225  3462 7644
226  7143 4729
227  2986 4536
228  286  3216
229  5433 5332
230  8127 6345
231  8628 5874
232  5068 2248
233  5841 1833
234  5560 5123
235  1091 3430
236  3032 5932
237  5374 8926
238  8650 8008
239  9777 7621
240  3137 8867
241  8838 5142
242  4721 7570
243  3034 3607
244  9647 4053
245  8162 9483
246  7771 5331
247  6693 9234
248  8489 2460
249  594  4382
250  8954 5259
251  297  805 
252  5978 856 
253  9452 5473
254  7045 7046
255  3129 57  
256  9808 5516
257  8895 5001
258  6536 9345
259  4692 7487
260  5536 7752
261  2299 4924
262  9808 6482
263  5997 6948
264  3440 4919
265  1686 4850
266  1392 781 
267  4211 8606
268  446  4013
269  7964 2654
270  3218 6692
271  7652 1230
272  1894 2007
273  831  1539
274  6555 3517
275  3436 5268
276  8942 8991
277  1620 3819
278  6103 9690
279  7406 8930
280  1470 9484
281  8878 2515
282  878  6980
283  7991 6562
284  4650 8085
285  2124 2378
286  1850 9139
287  7643 189 
288  3533 9431
289  3880 3159
290  5552 2529
291  7436 3716
292  1355 283 
293  7833 9295
294  2025 6528
295  9307 8193
296  8379 4341
297  6317 1241
298  6799 117 
299  4374 7152
300  9800 595 
301  5761 4297
302  2688 383 
303  3467 3783
304  466  888 
305  9408 6311
306  3841 3311
307  1292 3749
308  131  1414
309  9875 1857
310  6162 5367
311  3726 3422
312  2297 357 
313  2009 6599
314  2140 1013
315  8983 6069
316  2783 13  
317  1850 3861
318  5400 9587
319  4800 6808
320  3618 4960
321  3980 4223
322  1731 5663
323  2250 2715
324  7601 406 
325  3518 7166
326  6777 2722
327  8024 4907
328  7786 4790
329  5907 1716
330  1075 2763
331  8142 3115
332  9746 8214
333  7175 7466
334  5947 6981
335  4760 3584
336  4235 6694
337  8755 2626
338  6833 9592
339  9850 2317
340  3835 3849
341  5387 4019
342  7792 299 
343  1342 116 
344  7804 6615
345  7181 2043
346  1768 8603
347  1240 393 
348  3896 4508
349  3663 5461
350  7488 6345
351  4700 2149
352  9176 2076
353  2865 7850
354  1019 3773
355  860  8063
356  8165 8876
357  2125 5275
358  4550 3746
359  4502 7805
360  2151 8788
361  8080 8130
362  6867 7867
363  9015 4885
364  9863 5791
365  1792 8986
366  4753 4864
367  998  4074
368  2231 1437
369  5468 6720
370  5238 1099
371  8881 2606
372  4225 2303
373  9958 9316
374  2652 9719
375  7832 9324
376  8876 330 
377  7057 2139
378  3308 7606
379  2625 5601
380  1725 7656
381  9376 9848
382  7730 337 
383  637  1590
384  790  4434
385  8544 5225
386  5300 2619
387  8249 5424
388  6348 8638
389  5182 9733
390  4365 5300
391  9775 534 
392  7734 4695
393  7739 5243
394  3258 1536
395  3359 258 
396  2500 7320
397  70   2213
398  2355 5756
399  816  8828
400  251  8241
401  9614 480 
402  4646 2363
403  5800 9733
404  8826 4953
405  7080 8866
406  3363 6688
407  1264 904 
408  3633 97  
409  3674 3467
410  580  3114
411  6755 5548
412  117  1324
413  1034 3030
414  8191 4576
415  138  6716
416  6356 4868
417  2659 4690
418  8468 7525
419  2903 3000
420  897  7809
421  7243 7084
422  3464 8132
423  4547 3045
424  8965 2467
425  1848 1082
426  5732 5883
427  3165 3254
428  9895 9540
429  1704 5074
430  3306 9757
431  8609 9685
432  1786 7637
433  191  5810
434  1493 6460
435  4315 7122
436  2966 4048
437  7639 4695
438  8358 6686
439  3255 610 
440  8131 1183
441  4393 2397
442  964  697 
443  8147 149 
444  5394 7318
445  4881 2369
446  3858 8423
447  6337 3721
448  5770 1985
449  2327 3065
450  6229 5391
451  1644 7047
452  8555 7066
453  8296 4691
454  5010 2273
455  6505 2261
456  9205 1601
457  6846 9291
458  1681 2061
459  4941 6560
460  6220 5358
461  5387 8031
462  5878 8818
463  2804 6981
464  8331 5420
465  8188 7173
466  965  2480
467  7413 4279
468  6024 4287
469  9037 8710
470  4208 1236
471  6952 7707
472  2122 6975
473  8602 5624
474  3003 922 
475  608  9397
476  4609 2902
477  587  6123
478  6520 4742
479  8921 2771
480  8460 4089
481  1016 9946
482  6333 4664
483  292  632 
484  1007 8498
485  6743 4109
486  1828 7508
487  4796 5707
488  5084 4331
489  5799 1191
490  1414 2944
491  7646 4816
492  6338 1036
493  9949 5209
494  45   6773
495  5727 9564
496  6388 8857
497  7260 2718
498  2676 994 
499  2594 4597
500  6176 5993
501  3724 7125
502  8803 3247
503  3696 1508
504  1422 9427
505  3697 4866
506  6117 4719
507  7184 9105
508  8246 9869
509  4313 5435
510  7606 6642
511  6092 2493
512  9624 2517
513  1374 974 
514  7114 3155
515  1634 578 
516  6792 3963
517  9606 5286
518  1554 5390
519  3031 3330
520  4969 3966
521  1658 3723
522  2615 7535
523  7916 5762
524  1013 2805
525  4041 9909
526  5865 3197
527  2463 6104
528  5252 1311
529  2089 3475
530  2584 3370
531  8534 3253
532  2848 8119
533  3538 6787
534  2933 8796
535  1496 7204
536  6446 7031
537  5181 8338
538  9992 6433
539  4777 2595
540  8834 8340
541  3685 7822
542  166  1058
543  6745 9193
544  5717 2872
545  9773 2765
546  7740 3435
547  7107 8693
548  7156 5606
549  6322 2930
550  2764 4784
551  4596 1368
552  3271 9   
553  3252 6714
554  7970 1437
555  7226 4181
556  6992 9989
557  3997 671 
558  997  5528
559  920  8420
560  9381 4243
561  8880 5324
562  9544 7203
563  953  4868
564  5510 1350
565  7612 5032
566  9812 8394
567  2814 5546
568  5177 801 
569  3076 1666
570  7088 3896
571  862  4839
572  9134 9416
573  675  7856
574  6591 1981
575  3051 3947
576  184  8411
577  3487 9809
578  2466 2550
579  9063 3082
580  6947 622 
581  3278 7965
582  9583 5851
583  8508 3734
584  7355 1286
585  2980 4215
586  105  7377
587  491  9691
588  4339 2517
589  9366 5923
590  2163 2032
591  8223 7219
592  3500 2055
593  7589 4852
594  5431 3629
595  5267 8555
596  9470 3310
597  1396 6466
598  8857 3911
599  3048 9705
600  8623 4171
601  273  6861
602  9400 666 
603  7235 4094
604  4500 1611
605  267  963 
606  518  120 
607  4867 6288
608  3099 279 
609  6678 4729
610  938  3051
611  7058 3052
612  6804 3832
613  5936 7885
614  1865 2977
615  4683 1859
616  9836 978 
617  5629 4546
618  195  6468
619  580  1413
620  4148 5812
621  7048 5567
622  4814 8026
623  8680 271 
624  1452 5384
625  1441 4440
626  6065 2464
627  3405 8219
628  2676 8903
629  9651 4685
630  6224 8625
631  7534 6186
632  5171 8102
633  3827 5959
634  6692 7606
635  99   3313
636  1272 533 
637  6706 7514
638  9577 9757
639  2646 7240
640  4267 3963
641  8695 6457
642  4397 844 
643  3717 4676
644  5064 2915
645  9507 714 
646  7404 7551
647  812  2513
648  5806 7317
649  811  9999
650  3688 2234
651  288  1441
652  8759 2051
653  8811 2939
654  9051 7304
655  6195 2039
656  6002 1802
657  4621 1476
658  3124 2804
659  1429 3588
660  497  5744
661  5577 1371
662  6729 6582
663  805  4289
664  986  9906
665  9443 8835
666  1242 6909
667  239  7110
668  8537 9184
669  2337 5929
670  9408 8361
671  9967 7603
672  7502 713 
673  2656 2108
674  692  44  
675  351  9616
676  5658 2044
677  5577 9770
678  5550 2458
679  4899 8367
680  1263 3385
681  8927 465 
682  7366 3104
683  7877 9507
684  1530 5237
685  8576 7835
686  4799 5902
687  5945 2540
688  7720 1160
689  5477 624 
690  516  7315
691  1768 7980
692  4    5583
693  2674 9509
694  1960 8191
695  243  9624
696  5157 7611
697  6589 388 
698  9311 8949
699  3352 299 
700  3852 7283
701  4500 8432
702  4555 1674
703  6457 6111
704  9516 4549
705  7586 1197
706  6124 2569
707  520  4252
708  5983 8683
709  1578 5032
710  2716 4784
711  6917 2631
712  8987 7813
713  6174 1583
714  6077 6792
715  3936 8595
716  7215 4904
717  6398 2736
718  153  9365
719  6917 7105
720  1058 2141
721  4936 9695
722  3370 8955
723  9530 1739
724  2020 7800
725  6397 2009
726  1306 5845
727  5423 3510
728  1540 2055
729  2856 2947
730  5435 3311
731  184  7056
732  4725 1719
733  8073 3881
734  1685 5930
735  2842 5681
736  4174 1794
737  7594 9322
738  6505 4642
739  8049 2347
740  5769 8005
741  77   5014
742  2106 8238
743  8522 42  
744  7250 2831
745  6067 4913
746  1177 3110
747  7675 5209
748  4679 6226
749  9917 2070
750  6785 4786
751  6115 4125
752  7848 5648
753  3978 2539
754  5834 294 
755  3748 6348
756  9251 3069
757  1291 5429
758  2337 2379
759  8240 4945
760  9154 1352
761  5594 6153
762  2702 5356
763  1500 4673
764  4781 609 
765  8606 5934
766  7191 1590
767  2890 2278
768  8330 9049
769  3818 9495
770  8963 2244
771  6795 2246
772  3410 684 
773  8301 7689
774  687  717 
775  9668 8646
776  9419 3461
777  4553 3989
778  1080 5519
779  9302 6593
780  701  4794
781  2140 89  
782  6320 199 
783  4570 4312
784  4242 7139
785  5107 5107
786  4199 8529
787  9304 7744
788  1623 6765
789  9703 791 
790  8498 4052
791  3928 9521
792  2679 4163
793  5338 7550
794  5637 4028
795  3834 5010
796  5931 6308
797  4918 3889
798  147  1937
799  2343 8653
800  8059 6992
801  6986 9749
802  5495 8518
803  1863 3688
804  6940 2288
805  4630 8753
806  1026 1642
807  2453 1086
808  5069 4904
809  7631 1426
810  3946 8427
811  999  7547
812  716  3719
813  5092 5170
814  793  8581
815  6558 1829
816  945  9455
817  4576 1152
818  4449 1142
819  4950 8002
820  9325 2072
821  6925 4955
822  7203 5858
823  616  6664
824  5869 2834
825  1462 3740
826  6450 6890
827  2247 5691
828  8759 3911
829  726  6006
830  3587 8414
831  8370 9801
832  1870 8629
833  6602 7813
834  1661 7336
835  8355 3071
836  7526 54  
837  3273 3724
838  958  8277
839  9598 9902
840  443  5836
841  5323 5949
842  2446 1158
843  569  4597
844  1522 8355
845  2394 7994
846  1779 4135
847  7920 4195
848  2651 7833
849  8598 341 
850  1332 588 
851  4576 9999
852  412  875 
853  3209 5175
854  8887 1170
855  4868 9491
856  9476 5480
857  8399 3617
858  8785 1209
859  7357 5787
860  4236 5909
861  6401 7995
862  2183 4260
863  2169 4544
864  5205 1279
865  677  7541
866  9280 255 
867  822  6502
868  1275 6596
869  552  7260
870  2533 1157
871  8363 276 
872  8336 3572
873  2145 9941
874  4748 3392
875  5793 68  
876  5468 3310
877  5147 451 
878  6611 3051
879  9663 6054
880  1675 9291
881  7558 2443
882  9755 5884
883  6813 5520
884  1662 9126
885  6219 2445
886  8487 3412
887  7783 6700
888  4451 8757
889  4962 6167
890  1675 9751
891  2252 2020
892  9943 2010
893  3871 7900
894  4826 3329
895  8158 3828
896  6579 1562
897  6157 925 
898  8687 6476
899  1052 7506
900  5206 3523
901  5385 1217
902  2643 7757
903  8936 7736
904  2000 1411
905  630  3268
906  2348 6557
907  5396 4624
908  8220 9783
909  5632 8363
910  936  1032
911  4723 8414
912  9690 3189
913  4951 829 
914  8167 7864
915  70   8973
916  9307 7008
917  9746 6508
918  1764 8079
919  5314 9717
920  209  2253
921  10   4322
922  8086 3831
923  5375 6025
924  7253 3848
925  4318 5267
926  9905 8015
927  1836 673 
928  5321 5718
929  7933 8683
930  7946 6671
931  3459 8026
932  7393 427 
933  7960 3456
934  8731 7802
935  5046 9383
936  4813 3123
937  5234 6079
938  931  647 
939  1010 7112
940  9721 3945
941  3207 71  
942  605  341 
943  5295 3145
944  4510 7411
945  7506 6430
946  6046 8568
947  2972 5826
948  7491 4742
949  9923 2500
950  5858 2901
951  2691 595 
952  5143 5767
953  8137 2715
954  6887 2272
955  7562 689 
956  7885 7513
957  207  4702
958  4032 1112
959  5518 1976
960  1394 3868
961  6417 7469
962  5020 6252
963  6189 9237
964  1755 6836
965  1521 7523
966  1563 2851
967  1180 2321
968  5802 944 
969  3343 1936
970  4627 7666
971  2551 2730
972  8309 4438
973  4114 5892
974  18   2513
975  9012 5994
976  1403 5375
977  9138 6252
978  9817 9198
979  351  7870
980  7647 6462
981  9378 2385
982  4308 1591
983  9266 4022
984  4949 7646
985  2699 8687
986  5687 3896
987  1731 2491
988  5924 6013
989  763  599 
990  1992 9998
991  497  4947
992  5808 6167
993  4311 386 
994  7672 7481
995  5452 8485
996  9009 6228
997  1003 4001
998  9640 529 
999  6102 924 
1000 8155 6441
1001 5772 8859
1002 5910 178 
1003 5967 7012
1004 558  6787
1005 7228 6643
1006 9490 6365
1007 9006 247 
1008 4577 3028
1009 9255 1172
1010 2160 9924
1011 9253 9745
1012 7681 6862
1013 8195 520 
1014 6352 6235
1015 6843 5052
1016 665  7800
1017 5618 2382
1018 34   682 
1019 9023 3916
1020 3157 1924
1021 3503 232 
1022 4561 4816
1023 4140 8738
1024 3075 5497
1025 3956 3271
1026 12   1220
1027 4356 825 
1028 4249 5283
1029 9267 7861
1030 8951 7588
1031 3799 956 
1032 5992 3943
1033 6468 331 
1034 9454 5521
1035 4128 6453
1036 217  4049
1037 8189 4982
1038 9892 2942
1039 2011 3894
1040 8365 5783
1041 8886 4187
1042 812  9114
1043 8866 9216
1044 6197 2570
1045 3010 9339
1046 9314 4420
1047 2065 911 
1048 2540 431 
1049 1690 9454
1050 4604 9046
1051 1812 9917
1052 876  2852
1053 5846 1469
1054 7820 6235
1055 6299 8789
1056 1771 7166
1057 5937 7476
1058 524  139 
1059 946  3701
1060 7519 4693
1061 9800 1432
1062 9705 9141
1063 6336 7658
1064 582  6503
1065 6409 4547
1066 5847 5320
1067 1614 6002
1068 1674 3106
1069 2356 9720
1070 7550 7522
1071 6207 5868
1072 2532 4191
1073 3632 7815
1074 4631 2888
1075 936  1641
1076 9020 3074
1077 5914 4469
1078 6346 3397
1079 6431 9254
1080 4817 6579
1081 6642 5325
1082 4820 4688
1083 8585 173 
1084 1520 9904
1085 9266 5763
1086 2773 8898
1087 9854 7761
1088 7840 9712
1089 4238 3394
1090 476  5521
1091 979  1629
1092 7980 82  
1093 3580 7642
1094 3959 1325
1095 6552 5940
1096 2352 9925
1097 9735 7742
1098 9461 8330
1099 4587 5806
1100 6700 5675
1101 4041 9720
1102 4952 8747
1103 5099 9456
1104 4663 292 
1105 6900 3032
1106 1269 8418
1107 5247 5815
1108 6198 4188
1109 6893 726 
1110 1070 273 
1111 3278 3108
1112 6340 6545
1113 8525 2108
1114 9323 5146
1115 5933 7026
1116 8456 6226
1117 1046 6226
1118 5151 3198
1119 3744 4611
1120 2347 7955
1121 4574 8379
1122 5482 8286
1123 5326 5797
1124 6248 5772
1125 2329 9285
1126 8881 9182
1127 2949 1782
1128 1514 7369
1129 3608 8340
1130 4691 3624
1131 1732 1739
1132 5100 5428
1133 6256 5669
1134 4779 7900
1135 3389 2637
1136 7198 4653
1137 2567 2921
1138 1758 7974
1139 7209 7253
1140 1859 4970
1141 5934 3300
1142 7769 6752
1143 5293 9406
1144 6151 6548
1145 880  433 
1146 2403 3436
1147 9024 8500
1148 6951 7270
1149 6222 438 
1150 9489 9199
1151 6751 4189
1152 8316 4380
1153 8198 4653
1154 6446 5484
1155 1424 148 
1156 1421 2388
1157 2409 3955
1158 9102 9943
1159 3265 7646
1160 6804 3405
1161 8568 4851
1162 944  8382
1163 5646 6561
1164 9966 7284
1165 8744 6532
1166 8483 812 
1167 9556 5290
1168 9195 8858
1169 1311 2523
1170 3875 5532
1171 7558 8046
1172 5796 5287
1173 7203 844 
1174 5283 6833
1175 4535 6759
1176 7185 4882
1177 6437 1353
1178 8271 344 
1179 1788 7751
1180 9888 7688
1181 8628 730 
1182 6836 2968
1183 937  5731
1184 4117 3517
1185 6457 4833
1186 2440 977 
1187 5192 4634
1188 9893 9053
1189 3929 9279
1190 7352 785 
1191 1123 9642
1192 3158 3706
1193 9334 8977
1194 5893 7961
1195 4062 9745
1196 3307 7265
1197 3527 595 
1198 4262 7984
1199 6800 2151
1200 8952 5670
1201 9144 1753
1202 4525 2567
1203 3944 2673
1204 6343 8256
1205 8393 4117
1206 8714 7725
1207 4188 298 
1208 8356 4207
1209 7575 4361
1210 3040 4958
1211 4350 4026
1212 5227 164 
1213 9576 821 
1214 6801 6915
1215 9292 9982
1216 3200 3620
1217 5643 1620
1218 6799 506 
1219 7653 7716
1220 3036 1302
1221 2180 2390
1222 9915 3996
1223 6488 7466
1224 5586 6573
1225 3275 828 
1226 3062 1728
1227 2557 9779
1228 8925 5463
1229 6626 514 
1230 9899 1855
1231 6643 4901
1232 8626 9502
1233 9943 6119
1234 622  8680
1235 8612 8743
1236 6633 5205
1237 2720 5740
1238 4754 3389
1239 6051 1907
1240 4203 6928
1241 2902 6371
1242 5405 978 
1243 581  5509
1244 2997 9630
1245 5951 8364
1246 7244 6545
1247 5291 2299
1248 1844 5353
1249 508  1102
1250 7679 1566
1251 4834 7758
1252 3774 6491
1253 937  7631
1254 8248 5900
1255 7441 8923
1256 46   7185
1257 3135 5341
1258 8354 4201
1259 3952 639 
1260 1824 7219
1261 922  3679
1262 6006 4819
1263 3822 1172
1264 2635 8691
1265 3709 8055
1266 7141 6427
1267 5883 8564
1268 1189 805 
1269 6774 370 
1270 9438 7832
1271 7841 396 
1272 5829 8556
1273 9870 4952
1274 8230 9845
1275 2639 1084
1276 2628 8908
1277 4591 4078
1278 7725 3319
1279 8646 2342
1280 8453 742 
1281 2600 2123
1282 9919 8717
1283 8136 4934
1284 8497 5486
1285 4871 1934
1286 8502 2320
1287 6015 4940
1288 3859 7759
1289 7316 6630
1290 5299 7776
1291 8581 6659
1292 2372 1801
1293 3190 81  
1294 7540 7398
1295 8109 6953
1296 6194 5902
1297 6109 3458
1298 3802 3953
1299 517  2177
1300 5343 94  
1301 3611 1609
1302 6673 6084
1303 94   7643
1304 3267 9228
1305 2504 3689
1306 8052 9057
1307 608  9997
1308 1711 7753
1309 7293 142 
1310 4826 6458
1311 2651 226 
1312 682  4982
1313 8778 7742
1314 9002 9159
1315 3382 7180
1316 4825 6387
1317 5331 2628
1318 9776 1940
1319 1644 9610
1320 7197 8122
1321 2864 1367
1322 9093 1395
1323 617  989 
1324 4723 505 
1325 4905 3076
1326 5748 156 
1327 9092 9625
1328 5699 3684
1329 9419 8652
1330 2041 1834
1331 4412 5310
1332 5521 5821
1333 9181 493 
1334 1299 6675
1335 3250 5370
1336 8829 2392
1337 5529 2607
1338 7887 270 
1339 9927 9719
1340 6627 5861
1341 3271 724 
1342 8741 8103
1343 8195 5828
1344 1679 5344
1345 5560 8215
1346 5896 1818
1347 2859 8580
1348 1986 1625
1349 3940 2816
1350 3403 4489
1351 3259 1738
1352 8499 1590
1353 8973 2601
1354 3485 6532
1355 7747 98  
1356 1967 7385
1357 9855 5843
1358 374  2703
1359 7845 7545
1360 5754 7838
1361 4791 2029
1362 3212 7926
1363 5187 7276
1364 2937 2555
1365 5452 8022
1366 3137 2050
1367 213  7638
1368 9017 1093
1369 626  1381
1370 2454 268 
1371 6946 4279
1372 4125 5206
1373 5807 1148
1374 504  9843
1375 8591 6136
1376 3366 8647
1377 4061 4650
1378 2824 319 
1379 8446 2507
1380 8830 5226
1381 5837 7571
1382 9936 8723
1383 8579 5905
1384 744  3770
1385 7476 1006
1386 3854 60  
1387 4477 7833
1388 9753 2198
1389 1671 6772
1390 714  8357
1391 483  2037
1392 4920 4909
1393 7252 4563
1394 7569 7671
1395 3198 2131
1396 4197 8603
1397 9904 1945
1398 1107 3540
1399 9651 6251
1400 2009 8343
1401 9936 522 
1402 4377 4539
1403 3937 9929
1404 7329 5048
1405 4851 6332
1406 7768 8434
1407 5634 6353
1408 4334 4720
1409 478  628 
1410 5620 6687
1411 9517 5671
1412 8707 6233
1413 2394 9825
1414 4410 7034
1415 6729 9199
1416 3848 4501
1417 7914 7378
1418 2681 5115
1419 74   5243
1420 5717 8319
1421 7207 3892
1422 1648 8070
1423 7012 1884
1424 914  1009
1425 1960 7753
1426 8852 3484
1427 8539 9469
1428 4795 4407
1429 4828 8336
1430 4812 762 
1431 8232 9224
1432 7226 3696
1433 1685 3955
1434 5783 5715
1435 2768 9067
1436 8849 1640
1437 6059 6658
1438 5109 2462
1439 5998 9955
1440 5931 8934
1441 1735 8681
1442 4092 2968
1443 9152 7952
1444 8635 7006
1445 4435 4429
1446 539  7870
1447 3985 7340
1448 8370 9973
1449 8832 2495
1450 3298 9691
1451 9717 1304
1452 6149 4830
1453 9587 2559
1454 7238 8970
1455 2119 809 
1456 7430 4932
1457 3770 9335
1458 2843 9739
1459 7158 1048
1460 7085 5702
1461 9592 3114
1462 25   8400
1463 2371 9068
1464 6147 1206
1465 1408 8883
1466 398  646 
1467 8967 3545
1468 8776 4499
1469 7165 4675
1470 8777 8390
1471 5092 9246
1472 7426 8934
1473 9423 4181
1474 9844 3134
1475 2817 559 
1476 2149 5172
1477 2766 7930
1478 5235 6111
1479 5646 9407
1480 4860 957 
1481 6755 5152
1482 5577 9558
1483 528  1564
1484 27   9008
1485 2815 5588
1486 883  9687
1487 8425 2144
1488 4400 3745
1489 8387 8231
1490 8576 289 
1491 7943 4984
1492 6305 1285
1493 2977 4101
1494 6998 6056
1495 972  5943
1496 7060 6798
1497 1414 7886
1498 92   9188
1499 430  1167
1500 7851 1486
1501 6409 7000
1502 1017 3903
1503 7234 9046
1504 4604 6171
1505 1870 841 
1506 1949 2362
1507 4328 1082
1508 5604 4477
1509 5697 8665
1510 8611 5814
1511 4946 2402
1512 8229 9432
1513 8459 7005
1514 5874 262 
1515 6248 5373
1516 8945 4076
1517 3121 5648
1518 8295 962 
1519 5993 7104
1520 7026 2947
1521 4456 3885
1522 3103 8738
1523 5343 3108
1524 7222 6956
1525 939  1161
1526 1596 2293
1527 4922 3460
1528 3746 6178
1529 7547 2789
1530 8983 786 
1531 2947 6062
1532 6520 4926
1533 7784 9155
1534 3715 8258
1535 3961 7015
1536 2693 1555
1537 8131 3662
1538 8664 351 
1539 8510 6831
1540 6841 5191
1541 6730 6610
1542 246  4274
1543 8453 7927
1544 202  5731
1545 2335 8543
1546 2966 1270
1547 3572 6869
1548 8884 3197
1549 5051 561 
1550 1950 679 
1551 8624 5543
1552 3536 3217
1553 359  3104
1554 9771 3204
1555 2746 9472
1556 6986 89  
1557 3733 7529
1558 640  2335
1559 9518 7214
1560 9379 7663
1561 5213 9330
1562 9767 3853
1563 1709 6714
1564 4773 2223
1565 6061 618 
1566 665  7734
1567 7174 3049
1568 7999 3186
1569 7967 7923
1570 1016 8869
1571 8765 975 
1572 577  7220
1573 7184 8741
1574 1831 6625
1575 6404 5448
1576 3983 6379
1577 7769 8608
1578 6556 9401
1579 5846 7925
1580 3930 3343
1581 5321 3258
1582 7566 1828
1583 3722 9958
1584 9281 7003
1585 9797 3443
1586 4931 927 
1587 7753 7563
1588 5484 2865
1589 5903 3815
1590 9689 7137
1591 4029 2926
1592 9580 9130
1593 3664 8601
1594 5392 9649
1595 1962 3344
1596 3570 2552
1597 4195 1077
1598 513  8562
1599 9917 5443
1600 3241 3949
1601 8624 8907
1602 5198 4677
1603 7552 2259
1604 1935 8191
1605 8798 4008
1606 1921 6370
1607 3444 3162
1608 7323 7514
1609 3277 8898
1610 9826 1301
1611 7091 5750
1612 7844 3992
1613 867  5946
1614 4679 8878
1615 725  8731
1616 3391 8492
1617 1082 2246
1618 511  4960
1619 8336 1575
1620 2584 3866
1621 3492 8366
1622 9901 6321
1623 6130 9077
1624 935  2775
1625 7470 2815
1626 5864 3714
1627 5660 4503
1628 1931 67  
1629 9910 3260
1630 2026 3574
1631 8394 1110
1632 4462 1808
1633 5260 3675
1634 3280 1512
1635 1595 2291
1636 4141 8976
1637 2475 2100
1638 5723 6149
1639 4483 9123
1640 5269 1282
1641 6445 4485
1642 1230 5978
1643 9472 2025
1644 6627 5019
1645 1997 9539
1646 6785 7674
1647 3909 504 
1648 6786 9462
1649 2795 8571
1650 1226 8477
1651 8994 1659
1652 679  878 
1653 7408 9899
1654 2329 3163
1655 5222 7223
1656 5330 7977
1657 1628 1062
1658 376  2334
1659 982  6776
1660 9007 7456
1661 4211 5124
1662 8101 602 
1663 5774 6024
1664 167  7726
1665 4061 9308
1666 1648 9835
1667 4786 9925
1668 7132 2361
1669 2213 8792
1670 6658 9024
1671 4348 7898
1672 5584 3623
1673 2476 3860
1674 506  5792
1675 1063 2215
1676 817  6092
1677 1106 9151
1678 4440 256 
1679 5768 8389
1680 4700 678 
1681 6685 6053
1682 4084 8506
1683 9286 2098
1684 4493 2223
1685 1425 7838
1686 392  5216
1687 2091 3292
1688 9952 8719
1689 7776 8216
1690 904  125 
1691 5874 1916
1692 213  5354
1693 273  5882
1694 2310 4783
1695 3426 4476
1696 7360 8244
1697 3862 2501
1698 8296 7441
1699 3549 1647
1700 8565 551 
1701 681  15  
1702 5062 2763
1703 2125 2553
1704 1326 9592
1705 6659 6370
1706 890  9659
1707 6896 4202
1708 2495 5193
1709 8065 4677
1710 9401 5467
1711 1965 4168
1712 5653 6919
1713 7806 4550
1714 4348 2264
1715 6507 8263
1716 1483 4356
1717 6933 1125
1718 6392 5836
1719 4410 5447
1720 5806 9833
1721 7481 305 
1722 1843 2630
1723 8264 904 
1724 4172 5232
1725 9081 5346
1726 9700 1441
1727 7598 1611
1728 8781 4246
1729 5222 2707
1730 8730 4724
1731 820  1496
1732 7414 4059
1733 2909 5707
1734 3379 5856
1735 8769 6348
1736 2917 5874
1737 6771 9282
1738 802  6320
1739 878  9578
1740 5213 3079
1741 7245 3277
1742 2040 2300
1743 5289 8322
1744 2878 1077
1745 5771 4424
1746 8518 2719
1747 1699 5094
1748 1343 2590
1749 7407 9584
1750 5046 4783
1751 3817 7177
1752 5141 8895
1753 8744 5681
1754 6522 6640
1755 5179 4124
1756 9244 5990
1757 5388 713 
1758 7023 7001
1759 1238 3241
1760 6620 1088
1761 6827 498 
1762 6384 7507
1763 1735 9627
1764 8103 3288
1765 1415 4222
1766 4159 1534
1767 1887 5313
1768 1269 4655
1769 2618 8507
1770 1283 6565
1771 6420 6413
1772 4340 6192
1773 9988 3912
1774 4699 7896
1775 1310 5865
1776 54   8773
1777 6329 1262
1778 3108 8758
1779 907  50  
1780 7967 3777
1781 964  9472
1782 8536 6365
1783 5651 1980
1784 8393 9505
1785 5548 2508
1786 9243 5209
1787 3801 9518
1788 1072 8526
1789 7799 5552
1790 3830 1848
1791 6544 8680
1792 5389 2597
1793 1818 333 
1794 1082 6829
1795 3974 4549
1796 5801 6651
1797 4971 6916
1798 9125 8818
1799 301  6567
1800 5278 9330
1801 3066 2798
1802 1051 3188
1803 4359 2689
1804 7998 7703
1805 1374 8427
1806 7112 6921
1807 3639 762 
1808 6072 3713
1809 3001 2326
1810 5371 8858
1811 596  609 
1812 1614 6211
1813 5467 9398
1814 788  4858
1815 1341 5074
1816 3227 7794
1817 6682 4285
1818 1210 6908
1819 7981 102 
1820 4221 7479
1821 5624 2221
1822 2052 3849
1823 3462 2241
1824 7446 5957
1825 5100 3141
1826 5084 5263
1827 4697 2306
1828 9134 2856
1829 6257 2477
1830 5072 1316
1831 2164 1205
1832 4055 6417
1833 4338 7342
1834 340  4321
1835 2491 3091
1836 9090 4707
1837 1962 9946
1838 3991 5517
1839 1744 7826
1840 4353 6805
1841 3941 2795
1842 2127 5746
1843 4283 2846
1844 7101 441 
1845 7495 8898
1846 8391 1390
1847 3066 9825
1848 429  4016
1849 6031 9383
1850 709  4544
1851 4958 4677
1852 5318 3633
1853 9504 8445
1854 8359 4462
1855 555  1912
1856 6811 1399
1857 4709 1328
1858 7588 7813
1859 8058 1599
1860 7441 6341
1861 6982 2279
1862 1916 2001
1863 4981 4896
1864 7802 5379
1865 6381 2289
1866 4544 80  
1867 7699 8766
1868 2913 9250
1869 5514 8456
1870 6726 7059
1871 4356 6291
1872 3570 2363
1873 9784 1412
1874 2492 825 
1875 6343 4911
1876 5314 6645
1877 4153 6298
1878 279  8885
1879 379  6042
1880 1741 5858
1881 8830 1271
1882 9160 8714
1883 2740 6761
1884 8806 5999
1885 2129 7377
1886 727  3026
1887 6894 1660
1888 3303 2939
1889 7325 7433
1890 7315 44  
1891 7703 4530
1892 130  7206
1893 1923 505 
1894 7597 4462
1895 1652 7199
1896 1463 6024
1897 3467 7470
1898 3514 5904
1899 9089 8352
1900 6929 59  
1901 9222 1807
1902 885  9528
1903 5603 7886
1904 207  9004
1905 5176 4551
1906 4052 5891
1907 8179 7952
1908 5590 8304
1909 4215 2595
1910 393  8735
1911 7385 5503
1912 5534 6781
1913 431  6955
1914 8709 1391
1915 8808 8187
1916 7268 1074
1917 2295 9846
1918 6623 6192
1919 2602 3225
1920 7399 196 
1921 771  3300
1922 8767 7228
1923 6774 8963
1924 2510 7345
1925 3424 8245
1926 3524 4307
1927 7015 8214
1928 919  5766
1929 9550 2449
1930 5013 6357
1931 17   3836
1932 5919 2674
1933 3442 6220
1934 3317 9404
1935 7293 9269
1936 8613 7036
1937 4132 3466
1938 7535 440 
1939 4703 7657
1940 5292 8952
1941 9070 6700
1942 6876 7170
1943 4557 764 
1944 8291 3795
1945 6398 3134
1946 4259 9093
1947 7843 162 
1948 8145 9089
1949 4831 6618
1950 5469 8843
1951 6743 1583
1952 2112 4298
1953 185  6914
1954 2599 6710
1955 7764 3131
1956 5143 8895
1957 3918 69  
1958 2606 1421
1959 6517 5930
1960 1516 3836
1961 4857 1334
1962 9162 8578
1963 3328 5467
1964 4894 4680
1965 291  316 
1966 5820 3822
1967 9902 4349
1968 1301 2030
1969 127  7261
1970 3338 5621
1971 5856 1705
1972 3294 7495
1973 4331 7879
1974 464  3742
1975 5906 677 
1976 6547 4433
1977 6483 7035
1978 813  1382
1979 9792 3973
1980 5151 7807
1981 9090 455 
1982 2157 3082
1983 3003 8122
1984 1071 1493
1985 6904 9541
1986 7248 8161
1987 6981 2140
1988 1165 1153
1989 2434 2209
1990 9320 9225
1991 7709 8790
1992 4378 3400
1993 9862 8497
1994 4159 9983
1995 2251 7677
1996 3201 487 
1997 5553 376 
1998 3892 9385
1999 263  3598
2000 1502 6721
2001 9212 612 
2002 4082 3148
2003 3717 4625
2004 2672 6327
2005 7825 6228
2006 6390 9159
2007 1316 1749
2008 5237 4625
2009 465  3322
2010 5150 9075
2011 3767 5489
2012 5732 4399
2013 1842 2500
2014 4862 3677
2015 7773 2797
2016 1595 9931
2017 1599 7584
2018 7575 4967
2019 5694 5110
2020 4184 6581
2021 2472 5882
2022 8115 9716
2023 5439 353 
2024 3061 256 
2025 1324 8095
2026 2466 2887
2027 1629 9671
2028 5257 4867
2029 6079 9494
2030 9108 5319
2031 5097 7429
2032 6154 5006
2033 200  2589
2034 1133 7463
2035 1246 4702
2036 7993 2632
2037 7950 2923
2038 4739 5007
2039 285  6300
2040 7687 2828
2041 8825 6188
2042 5653 7433
2043 4406 4843
2044 6057 7533
2045 1935 2358
2046 5181 9425
2047 1034 9930
2048 3832 2990
2049 9684 6473
2050 209  9805
2051 5973 295 
2052 5105 4360
2053 3048 9430
2054 7933 9248
2055 7329 2671
2056 5109 7595
2057 3504 1300
2058 7960 331 
2059 8847 3288
2060 2757 4209
2061 2446 7917
2062 5392 6989
2063 3060 654 
2064 4722 3563
2065 3542 3614
2066 5903 9836
2067 9608 4726
2068 2484 4166
2069 4862 6585
2070 597  2002
2071 5341 4688
2072 1097 2106
2073 5637 619 
2074 199  4839
2075 8990 381 
2076 9197 7123
2077 9446 8721
2078 2419 3809
2079 3369 155 
2080 2184 3147
2081 943  7488
2082 1142 3088
2083 9894 3996
2084 1129 5621
2085 8924 9687
2086 3352 2892
2087 9435 34  
2088 7884 9961
2089 9057 8803
2090 9932 2821
2091 8026 3071
2092 1754 1642
2093 5023 377 
2094 4634 5261
2095 5464 4767
2096 5469 7110
2097 5232 99  
2098 88   290 
2099 655  1618
2100 1907 1357
2101 2252 381 
2102 8079 5617
2103 4330 8767
2104 8759 7208
2105 6884 7565
2106 2775 9411
2107 1435 7528
2108 7182 9410
2109 5415 8506
2110 7670 3182
2111 5112 9805
2112 4781 3252
2113 5671 4343
2114 8127 9700
2115 3830 5004
2116 5374 2377
2117 9998 1010
2118 9974 3898
2119 8476 3375
2120 2953 2719
2121 5440 4099
2122 764  8172
2123 7599 7248
2124 7513 3824
2125 2807 9622
2126 2438 864 
2127 9891 616 
2128 8266 5217
2129 4881 4333
2130 5959 8573
2131 346  3771
2132 1502 7543
2133 2324 8190
2134 9488 5660
2135 2626 7313
2136 35   1134
2137 5706 9093
2138 1964 2843
2139 7461 4972
2140 1139 9368
2141 3206 9731
2142 2801 4109
2143 3615 2942
2144 9483 89  
2145 7466 9347
2146 1755 3835
2147 8015 9945
2148 400  1891
2149 2623 3057
2150 6739 889 
2151 2425 6523
2152 3046 2511
2153 5048 8030
2154 1386 1348
2155 4360 9300
2156 9192 7646
2157 1791 8953
2158 6371 1403
2159 8681 876 
2160 3788 6297
2161 3753 4285
2162 2384 2766
2163 9917 4836
2164 4991 3303
2165 9175 6442
2166 3430 2218
2167 8559 6282
2168 7970 32  
2169 4355 8039
2170 6938 4781
2171 9570 5798
2172 4480 8949
2173 4265 9871
2174 7312 1865
2175 7560 3723
2176 4009 6186
2177 8007 4836
2178 5533 8335
2179 568  6697
2180 3819 7625
2181 4332 4741
2182 8286 1483
2183 4832 6853
2184 6809 6638
2185 9695 2325
2186 9796 5899
2187 3417 7216
2188 1542 1543
2189 9280 6782
2190 4506 3378
2191 2188 8846
2192 8018 6828
2193 2664 7820
2194 503  1832
2195 7564 1945
2196 2768 5755
2197 3238 2128
2198 9596 4083
2199 4436 185 
2200 4461 410 
2201 5696 6450
2202 4505 448 
2203 454  866 
2204 4314 5777
2205 2223 9434
2206 4654 938 
2207 1053 2451
2208 1970 1073
2209 7120 860 
2210 8514 86  
2211 100  8189
2212 7790 8485
2213 9417 3764
2214 4637 7230
2215 7450 4855
2216 8338 8782
2217 6707 4793
2218 5879 9857
2219 8441 3784
2220 6368 2738
2221 7484 9792
2222 7505 1018
2223 7091 4417
2224 8454 1263
2225 7395 4367
2226 3043 3799
2227 3122 8189
2228 2425 8284
2229 8809 4584
2230 8594 7615
2231 6421 3436
2232 7117 4351
2233 1850 7244
2234 1255 7930
2235 166  4252
2236 6600 4320
2237 7522 5739
2238 7719 391 
2239 453  8568
2240 9395 7203
2241 2977 8060
2242 8270 4662
2243 9041 9373
2244 8813 8731
2245 9790 8401
2246 257  4639
2247 4910 9977
2248 5307 1516
2249 9176 9548
2250 1744 9369
2251 1714 8513
2252 1147 9558
2253 3100 3730
2254 8136 9590
2255 5667 7029
2256 5052 8556
2257 4157 133 
2258 5067 4653
2259 2678 8195
2260 3865 6039
2261 7630 7667
2262 1773 8622
2263 9287 8717
2264 756  3433
2265 6645 7722
2266 6305 4628
2267 6996 8720
2268 1075 5608
2269 7700 7093
2270 4226 7221
2271 6315 119 
2272 9478 6701
2273 2345 1471
2274 3517 4539
2275 1554 7149
2276 2462 826 
2277 9162 6372
2278 9297 267 
2279 545  6514
2280 4024 6967
2281 8547 3056
2282 8467 1387
2283 6683 8001
2284 6696 9901
2285 1316 399 
2286 5297 7746
2287 3412 2632
2288 3841 7837
2289 4500 2351
2290 8478 2436
2291 4410 2477
2292 4936 5561
2293 7735 9348
2294 7106 9607
2295 8720 7460
2296 817  9918
2297 7295 2447
2298 9735 7487
2299 6538 9530
2300 1818 5042
2301 2608 4625
2302 8457 2964
2303 2588 1015
2304 2677 3528
2305 6256 183 
2306 8943 3370
2307 1274 8069
2308 6084 56  
2309 5160 5510
2310 9028 5204
2311 2587 9238
2312 608  5214
2313 6000 1809
2314 1804 2786
2315 79   1271
2316 5159 5351
2317 5038 961 
2318 6848 5712
2319 7473 5219
2320 6810 6944
2321 1769 5130
2322 6017 1930
2323 2590 2835
2324 6163 1579
2325 4098 390 
2326 5558 2737
2327 3651 6750
2328 9111 873 
2329 229  1146
2330 5088 2770
2331 1563 8301
2332 2127 9355
2333 2707 5487
2334 9065 4560
2335 8980 2099
2336 8555 3951
2337 3905 2941
2338 7735 6917
2339 9791 9607
2340 9517 9380
2341 3695 6689
2342 6141 823 
2343 6520 9133
2344 7827 7139
2345 8449 3083
2346 8004 2889
2347 8550 9064
2348 8977 1993
2349 4278 5199
2350 4182 542 
2351 6214 3396
2352 144  5003
2353 2451 3689
2354 1616 4036
2355 3751 3277
2356 6530 866 
2357 3954 229 
2358 9031 3078
2359 5668 6672
2360 955  360 
2361 2388 8558
2362 4275 2448
2363 3120 2312
2364 6267 2329
2365 221  9881
2366 1137 4527
2367 3592 3585
2368 8241 4756
2369 7267 1906
2370 276  5169
2371 9269 2829
2372 2543 602 
2373 3607 3016
2374 6879 1122
2375 6820 6132
2376 2213 4023
2377 4918 2637
2378 7267 6622
2379 7526 94  
2380 8799 4273
2381 1157 6511
2382 5097 1298
2383 4966 4580
2384 1865 4936
2385 3810 2168
2386 946  1900
2387 1182 7139
2388 4397 7013
2389 6645 7428
2390 1932 8337
2391 2702 2877
2392 5366 2531
2393 6020 3210
2394 9216 8148
2395 1703 2840
2396 7054 6040
2397 699  3618
2398 8129 7457
2399 1511 215 
2400 8903 9743
2401 6721 7387
2402 3053 7269
2403 4030 2236
2404 8951 1337
2405 5964 1173
2406 5547 683 
2407 6822 7261
2408 4235 1443
2409 6543 6377
2410 465  9786
2411 2325 6567
2412 9550 6402
2413 4597 6599
2414 301  1390
2415 5721 8825
2416 1846 5608
2417 7510 6360
2418 4826 2529
2419 778  5610
2420 6114 7777
2421 6432 7600
2422 3202 5829
2423 4240 2835
2424 5903 3162
2425 3386 6258
2426 6929 9344
2427 8874 9286
2428 1502 1047
2429 9928 2058
2430 4308 8395
2431 2089 7544
2432 4525 6335
2433 7940 8299
2434 7821 5270
2435 1642 8990
2436 2465 9996
2437 210  1944
2438 2674 3333
2439 1200 5175
2440 527  8157
2441 7639 5216
2442 7774 4468
2443 4039 4740
2444 608  7429
2445 6424 1663
2446 7970 2780
2447 8184 7683
2448 3010 374 
2449 3563 1259
2450 3341 1379
2451 9984 4880
2452 1918 5055
2453 4596 649 
2454 4605 7189
2455 9730 9613
2456 265  3422
2457 9221 5546
2458 3976 343 
2459 1138 7566
2460 9531 9459
2461 7498 873 
2462 2697 2145
2463 2889 8232
2464 2953 8401
2465 7857 9082
2466 3107 1095
2467 3280 625 
2468 9011 9631
2469 2641 8934
2470 8327 5569
2471 4499 5841
2472 9263 4683
2473 9255 9299
2474 2056 7336
2475 7494 151 
2476 2320 1882
2477 3941 1013
2478 5453 5865
2479 9416 9785
2480 2230 344 
2481 2746 1303
2482 1248 7021
2483 2480 4051
2484 5560 3615
2485 6669 613 
2486 4654 5231
2487 6865 1018
2488 3372 8597
2489 1967 2139
2490 7478 9145
2491 6280 5004
2492 2192 7081
2493 2729 3715
2494 8124 7413
2495 6880 1608
2496 3348 9037
2497 722  6775
2498 4481 3989
2499 9148 8393
2500 3504 2402
2501 3470 2023
2502 1011 2519
2503 8597 2343
2504 5738 7318
2505 9184 3132
2506 3331 1100
2507 5555 7357
2508 7444 6708
2509 1834 5909
2510 6475 219 
2511 9299 6507
2512 7817 2183
2513 2986 2462
2514 4440 9906
2515 1576 171 
2516 1490 1749
2517 4290 7834
2518 2611 5525
2519 4125 947 
2520 5907 8848
2521 4748 7039
2522 6045 1325
2523 4039 5761
2524 6627 1440
2525 5294 4134
2526 8698 4319
2527 8169 1252
2528 3123 7712
2529 714  8829
2530 4607 5215
2531 8866 7290
2532 489  4283
2533 1845 1953
2534 5601 1421
2535 377  8645
2536 9498 318 
2537 2538 451 
2538 5568 9532
2539 8235 4807
2540 1480 3593
2541 6521 7905
2542 7735 7276
2543 7316 2994
2544 4787 5525
2545 5690 7374
2546 6995 6173
2547 4187 4920
2548 6322 8472
2549 5576 3466
2550 7131 2477
2551 9121 2792
2552 7708 5434
2553 370  8906
2554 7185 4210
2555 1013 9966
2556 4571 7130
2557 8521 6581
2558 2814 2420
2559 8296 3040
2560 4226 2750
2561 653  5586
2562 6876 9505
2563 7622 5718
2564 6811 9244
2565 5427 5173
2566 9242 1024
2567 1532 931 
2568 3194 4962
2569 7596 2244
2570 7940 565 
2571 9582 4872
2572 6217 1511
2573 5527 1299
2574 6844 7455
2575 1239 4776
2576 550  2723
2577 5166 276 
2578 6982 9040
2579 158  6744
2580 4754 3818
2581 6299 6518
2582 4237 1260
2583 3781 3882
2584 7009 7354
2585 8793 8248
2586 1916 6070
2587 1183 3354
2588 5429 6147
2589 6829 8426
2590 2796 9654
2591 5994 4711
2592 1737 7125
2593 3305 2819
2594 2678 8733
2595 3276 8028
2596 8029 9725
2597 2916 7430
2598 841  9071
2599 913  8444
2600 6225 5277
2601 1950 9160
2602 8671 7990
2603 9137 825 
2604 2307 5523
2605 3258 3217
2606 4051 8020
2607 8832 7805
2608 3286 9152
2609 8982 3747
2610 2755 1145
2611 7157 1498
2612 2656 654 
2613 1004 396 
2614 9476 4568
2615 7746 3571
2616 7335 3098
2617 7306 6929
2618 1108 6996
2619 8431 4864
2620 2718 4412
2621 8636 4705
2622 2950 8429
2623 713  4723
2624 7680 3232
2625 8725 4803
2626 8219 6781
2627 1768 6104
2628 7798 4728
2629 37   376 
2630 7560 2356
2631 3867 4263
2632 3745 3955
2633 5302 5832
2634 865  2036
2635 2423 3730
2636 8948 9859
2637 4208 4160
2638 3212 9169
2639 8014 2499
2640 5546 1257
2641 7193 760 
2642 9310 5367
2643 6797 3014
2644 3773 5528
2645 4191 7939
2646 6930 85  
2647 6535 5405
2648 4185 3923
2649 137  5814
2650 1858 8564
2651 3611 664 
2652 6400 6425
2653 9036 7692
2654 5433 1953
2655 831  153 
2656 1755 1353
2657 4522 8607
2658 518  7264
2659 4202 4879
2660 9124 726 
2661 2754 8632
2662 2412 4906
2663 6096 8824
2664 1199 1363
2665 2005 6419
2666 2710 984 
2667 5468 1667
2668 9593 6477
2669 8338 4349
2670 9103 2269
2671 9125 1117
2672 1133 9986
2673 8878 9264
2674 2499 2720
2675 6794 3053
2676 5963 797 
2677 3053 6269
2678 2689 2738
2679 5468 1223
2680 7600 39  
2681 725  2521
2682 3398 6052
2683 1136 2263
2684 9010 9136
2685 272  3564
2686 1487 6107
2687 2178 7486
2688 5277 1210
2689 574  3195
2690 8490 2021
2691 1369 9368
2692 6966 1092
2693 9583 4201
2694 6792 2959
2695 1825 1271
2696 9195 5353
2697 6803 2065
2698 2372 3245
2699 9248 5318
2700 9885 665 
2701 1035 1510
2702 3193 5776
2703 8860 4619
2704 9632 5741
2705 7925 3496
2706 1929 2730
2707 6738 656 
2708 4223 8717
2709 257  5491
2710 8573 6328
2711 8190 1028
2712 4457 5304
2713 5060 573 
2714 5418 6600
2715 5333 4719
2716 5166 3269
2717 6587 2777
2718 2353 5954
2719 5696 9835
2720 743  1526
2721 9130 2399
2722 3346 5494
2723 1776 926 
2724 9349 5004
2725 3898 822 
2726 4972 4498
2727 9975 7182
2728 6400 2282
2729 2748 3430
2730 6656 4279
2731 7697 239 
2732 6674 6976
2733 4117 9882
2734 719  3907
2735 6417 1793
2736 5304 1903
2737 8164 8090
2738 759  7120
2739 9428 4824
2740 2079 2857
2741 423  1124
2742 7001 3328
2743 1030 4855
2744 7790 2494
2745 5696 6061
2746 7868 7528
2747 3398 3252
2748 8544 7965
2749 7534 5783
2750 4964 2561
2751 4555 1287
2752 612  1700
2753 1395 4283
2754 5287 6180
2755 6123 9882
2756 3469 4860
2757 6950 5847
2758 3170 854 
2759 9593 8630
2760 9296 4870
2761 5135 7252
2762 8579 5056
2763 1148 8079
2764 7403 2810
2765 2726 1530
2766 1557 7918
2767 7356 8485
2768 3676 8895
2769 9096 8280
2770 8361 5161
2771 2672 5148
2772 5146 7038
2773 3151 4328
2774 1614 5728
2775 2241 7434
2776 8158 7064
2777 5097 1613
2778 7392 1979
2779 6764 1710
2780 5547 8062
2781 2310 1355
2782 4911 3012
2783 7083 8018
2784 388  9631
2785 2894 4520
2786 1428 2458
2787 4618 8753
2788 1729 1901
2789 4501 4009
2790 2002 5478
2791 1422 3296
2792 5832 7013
2793 6248 5871
2794 8991 2277
2795 1190 7043
2796 254  2577
2797 5767 362 
2798 3260 2826
2799 78   8153
2800 1201 8032
2801 8982 4565
2802 9593 4810
2803 1800 1324
2804 4862 1012
2805 8172 3429
2806 230  899 
2807 5171 2018
2808 1319 4521
2809 8888 2237
2810 5930 5316
2811 5631 8794
2812 3342 8160
2813 4687 8693
2814 6682 2787
2815 1273 3034
2816 1355 8087
2817 9663 9497
2818 7034 5514
2819 3403 2887
2820 1802 1428
2821 7108 707 
2822 6652 8992
2823 9609 9176
2824 8212 6870
2825 6358 1681
2826 7319 1492
2827 429  349 
2828 1145 9808
2829 193  8951
2830 7833 1081
2831 2064 1689
2832 8269 6782
2833 292  1117
2834 6795 2367
2835 6668 2055
2836 2000 609 
2837 3337 4083
2838 9844 2542
2839 9735 9326
2840 9284 4873
2841 3442 6532
2842 2463 2562
2843 7862 7585
2844 9549 3083
2845 8190 725 
2846 7010 6634
2847 7870 4638
2848 6201 6786
2849 5662 5019
2850 7704 2781
2851 9466 3624
2852 3170 5871
2853 7282 1539
2854 3384 6321
2855 2245 7761
2856 6770 1007
2857 8744 2917
2858 6830 5885
2859 2499 2307
2860 6842 7141
2861 335  9149
2862 1662 7120
2863 4721 4315
2864 6313 5932
2865 2744 8009
2866 7059 63  
2867 3065 6532
2868 2627 9   
2869 2589 7129
2870 2461 345 
2871 8478 2498
2872 971  4521
2873 2240 4305
2874 6691 8114
2875 2172 7289
2876 8538 4300
2877 7340 6632
2878 9235 434 
2879 2383 1866
2880 1492 8235
2881 2221 7868
2882 380  6764
2883 6162 3550
2884 1837 9461
2885 1644 2806
2886 2687 477 
2887 468  3363
2888 1226 519 
2889 812  4940
2890 8776 4915
2891 7405 5031
2892 9381 9570
2893 2598 9968
2894 2818 2056
2895 2506 8527
2896 2602 6363
2897 7637 7973
2898 9744 9427
2899 327  3222
2900 5315 2638
2901 5415 5123
2902 4360 9783
2903 7552 2036
2904 978  1093
2905 991  9285
2906 5097 3846
2907 4227 6551
2908 3413 1820
2909 2414 7506
2910 3231 2131
2911 9327 7423
2912 7556 8795
2913 4424 7156
2914 4858 3461
2915 7745 5568
2916 9079 6718
2917 741  9119
2918 8830 5728
2919 391  4709
2920 5598 19  
2921 2259 3506
2922 7211 2250
2923 4518 8135
2924 7664 2947
2925 8033 1735
2926 8568 6357
2927 8135 3010
2928 7135 3463
2929 6701 4153
2930 3675 658 
2931 9273 5959
2932 7693 8497
2933 2762 1525
2934 8664 1634
2935 861  6467
2936 4279 2956
2937 791  9113
2938 6685 158 
2939 6032 9502
2940 468  1631
2941 7369 5661
2942 2092 3583
2943 3216 5080
2944 7277 437 
2945 5332 9595
2946 1215 5738
2947 3851 1750
2948 4507 6992
2949 4121 909 
2950 62   4618
2951 3885 3563
2952 1891 726 
2953 4148 2884
2954 6691 3237
2955 4020 2452
2956 9971 7995
2957 2856 4803
2958 7904 2323
2959 6476 1095
2960 1541 551 
2961 1375 7761
2962 7632 3638
2963 5810 6672
2964 8544 3440
2965 2787 1554
2966 7836 9581
2967 4435 4363
2968 717  1016
2969 1637 6836
2970 7788 5776
2971 4714 3197
2972 9627 5044
2973 4697 343 
2974 9717 3257
2975 1882 8494
2976 5300 2217
2977 2645 7014
2978 5780 9847
2979 2749 9874
2980 190  2635
2981 3860 9199
2982 248  255 
2983 308  6076
2984 8066 2673
2985 7495 2234
2986 9564 9866
2987 1197 9658
2988 4384 6793
2989 1573 4840
2990 6091 8711
2991 5858 9478
2992 578  924 
2993 5733 395 
2994 5602 1183
2995 2871 3933
2996 3904 8461
2997 4831 4079
2998 3985 4914
2999 7212 2657
3000 1183 8922
3001 8935 9604
3002 7907 9191
3003 4696 3200
3004 8838 8431
3005 4836 5697
3006 7430 9498
3007 8279 7734
3008 5893 2130
3009 2105 6809
3010 8791 8378
3011 6162 4370
3012 5229 5000
3013 5645 1161
3014 3760 6668
3015 294  36  
3016 3646 7457
3017 823  4415
3018 3037 2462
3019 1842 4933
3020 8278 1509
3021 1858 5935
3022 2499 327 
3023 4502 3659
3024 3325 4592
3025 6884 6866
3026 8786 4794
3027 1360 9876
3028 3943 1724
3029 8914 9512
3030 2540 2659
3031 5523 613 
3032 3812 4832
3033 5673 7842
3034 2215 71  
3035 2152 7452
3036 5990 571 
3037 1823 7956
3038 7305 7231
3039 749  992 
3040 1671 1155
3041 7702 5530
3042 2997 4618
3043 8950 9153
3044 4686 8534
3045 3532 9359
3046 3532 1620
3047 5862 6656
3048 9273 5721
3049 4176 1845
3050 6002 3806
3051 2601 5415
3052 6642 6608
3053 4335 6987
3054 6934 2004
3055 2201 4504
3056 6532 8591
3057 7461 8942
3058 38   8258
3059 7216 1112
3060 5618 5260
3061 8591 3189
3062 1195 6394
3063 4565 8909
3064 6979 4859
3065 3930 9053
3066 7765 6623
3067 2971 5320
3068 1942 7061
3069 1828 6493
3070 9856 8693
3071 3031 3080
3072 8929 1060
3073 7785 9556
3074 7822 1060
3075 146  5156
3076 4861 4096
3077 8807 9730
3078 3574 9420
3079 6000 2333
3080 8436 8990
3081 4182 5031
3082 9282 2840
3083 4580 1599
3084 6818 5619
3085 9788 8733
3086 7131 9203
3087 280  2095
3088 2249 7689
3089 8857 5961
3090 7655 7049
3091 807  1737
3092 2577 6291
3093 8020 1305
3094 7950 3864
3095 3086 2299
3096 1604 652 
3097 4930 4079
3098 8050 5387
3099 9490 5774
3100 5440 8876
3101 9726 1439
3102 2031 7396
3103 222  3940
3104 8162 8083
3105 3942 1096
3106 5896 6250
3107 3984 4143
3108 1737 3640
3109 8887 3557
3110 2722 4938
3111 7884 4395
3112 9760 4611
3113 5608 505 
3114 7262 8513
3115 2739 1702
3116 4179 4228
3117 4579 8371
3118 9296 3027
3119 6378 3997
3120 6221 9270
3121 5699 152 
3122 175  4059
3123 4636 8849
3124 5215 9861
3125 4741 6305
3126 3938 777 
3127 9817 2982
3128 1091 8242
3129 3745 4316
3130 2354 8172
3131 6591 1615
3132 4175 28  
3133 8911 1075
3134 4427 6098
3135 190  2732
3136 9876 4547
3137 8486 9824
3138 4028 3791
3139 6457 3924
3140 2279 4956
3141 2125 2122
3142 8865 6708
3143 6357 4756
3144 4889 2480
3145 1987 4355
3146 3134 5149
3147 9718 8157
3148 3224 6293
3149 392  663 
3150 9308 9616
3151 32   2313
3152 1816 1567
3153 1500 8659
3154 7106 9456
3155 2817 6755
3156 8831 4681
3157 2246 1994
3158 3294 4060
3159 1240 4600
3160 8592 655 
3161 2706 8567
3162 2201 952 
3163 2298 7209
3164 5326 7238
3165 8144 2401
3166 950  7014
3167 1053 859 
3168 8880 3560
3169 2641 4300
3170 3571 1205
3171 1973 5135
3172 2147 4372
3173 3910 1913
3174 7151 9732
3175 266  6973
3176 6013 9692
3177 5372 6943
3178 9827 3688
3179 394  3448
3180 4244 746 
3181 3041 9982
3182 5136 6207
3183 4738 3912
3184 387  4970
3185 3341 3429
3186 5070 7181
3187 7457 6088
3188 2319 851 
3189 3726 7444
3190 2157 2026
3191 5359 2682
3192 524  7777
3193 3005 2856
3194 3644 733 
3195 4872 9653
3196 6487 9070
3197 2616 6817
3198 3152 9329
3199 8411 9089
3200 8014 2105
3201 651  9277
3202 9381 2942
3203 6368 6983
3204 9937 5058
3205 1069 5980
3206 7531 6969
3207 857  7561
3208 1768 8740
3209 9214 3742
3210 2334 8691
3211 9587 6388
3212 1859 9133
3213 8159 3945
3214 4529 1245
3215 3018 18  
3216 7415 5697
3217 4010 8032
3218 7525 6546
3219 2536 6581
3220 9403 9579
3221 7984 4116
3222 4116 4113
3223 6576 2386
3224 3033 6413
3225 7632 1750
3226 2264 9270
3227 9768 8998
3228 1370 2323
3229 8494 8042
3230 8986 794 
3231 8239 9699
3232 8294 3487
3233 8571 8755
3234 8250 3601
3235 5049 1404
3236 8191 2730
3237 238  7979
3238 706  5874
3239 7740 2058
3240 6228 1884
3241 956  121 
3242 3093 5788
3243 5931 9814
3244 8634 809 
3245 7356 6196
3246 9452 9668
3247 3676 7566
3248 9571 5993
3249 6483 1527
3250 2209 7573
3251 5253 7017
3252 9092 426 
3253 5202 6787
3254 8239 1783
3255 7543 778 
3256 9920 5934
3257 2344 8372
3258 7417 4922
3259 1939 8842
3260 3372 2006
3261 1226 8777
3262 1682 2068
3263 7615 4774
3264 4765 8284
3265 7390 8303
3266 6958 1850
3267 513  8979
3268 194  5260
3269 4498 7880
3270 8089 4477
3271 2026 4625
3272 6319 153 
3273 2816 5011
3274 5581 6052
3275 66   5221
3276 8319 725 
3277 4685 7468
3278 4658 4355
3279 6010 3424
3280 2542 7385
3281 9325 4187
3282 3604 2828
3283 2532 9513
3284 2826 6480
3285 5772 1255
3286 2087 5752
3287 2322 1252
3288 3442 1076
3289 4962 9136
3290 913  7932
3291 107  4611
3292 4608 6412
3293 9219 6094
3294 7026 1633
3295 8525 5496
3296 6700 113 
3297 7591 6892
3298 7079 5592
3299 831  2902
3300 9447 9648
3301 8688 1945
3302 4337 1019
3303 9608 8930
3304 4297 137 
3305 6901 1187
3306 6633 2777
3307 6013 4496
3308 5129 9946
3309 2587 792 
3310 8650 83  
3311 4321 509 
3312 1813 5514
3313 622  9335
3314 7910 5680
3315 5090 1434
3316 2403 214 
3317 1392 9079
3318 4351 3803
3319 2698 1531
3320 9242 2599
3321 2480 3344
3322 3659 2117
3323 325  5836
3324 9613 9980
3325 2167 3020
3326 6149 4599
3327 9698 955 
3328 8748 9123
3329 7727 209 
3330 6266 3182
3331 7672 8296
3332 8119 523 
3333 5501 6804
3334 9973 4708
3335 1124 317 
3336 9549 9996
3337 2202 8731
3338 9234 6476
3339 6558 4610
3340 2464 2609
3341 4289 179 
3342 7090 3051
3343 7177 3585
3344 4657 8841
3345 8158 1651
3346 4269 9428
3347 1098 7734
3348 3263 7561
3349 4554 4531
3350 9862 5438
3351 7940 3981
3352 2685 5614
3353 6738 5003
3354 4305 9903
3355 5236 9496
3356 5984 2407
3357 6532 7321
3358 5478 1957
3359 958  5094
3360 1075 3570
3361 4346 3086
3362 9131 2891
3363 3808 9492
3364 5763 8605
3365 1793 1716
3366 1394 963 
3367 1068 9575
3368 9842 1607
3369 4030 944 
3370 2846 5797
3371 2748 8653
3372 4687 6227
3373 8075 4271
3374 3043 9777
3375 4882 3051
3376 4689 9600
3377 1176 7760
3378 4118 2760
3379 4791 5662
3380 4663 8209
3381 2217 5923
3382 8385 814 
3383 6050 3448
3384 4707 2545
3385 282  1881
3386 4391 3618
3387 4573 9030
3388 983  9758
3389 2595 3330
3390 254  8416
3391 9561 6616
3392 5155 4065
3393 4960 9804
3394 5055 5548
3395 692  327 
3396 7563 5368
3397 5605 2762
3398 781  3171
3399 5835 8284
3400 6566 6047
3401 6765 1349
3402 2790 1945
3403 6202 7332
3404 5155 6864
3405 2661 1704
3406 4549 4936
3407 4543 3334
3408 2560 6304
3409 3537 993 
3410 5198 5946
3411 8749 2855
3412 6076 9422
3413 6542 6761
3414 1566 1537
3415 842  6287
3416 8535 6331
3417 230  708 
3418 5920 181 
3419 7195 4507
3420 6937 5106
3421 257  3428
3422 4642 3137
3423 5075 3832
3424 3337 5969
3425 5239 3738
3426 9749 2065
3427 6491 3170
3428 7703 9030
3429 729  8210
3430 4165 5362
3431 8910 902 
3432 6548 4122
3433 3859 2450
3434 2610 6318
3435 8572 8084
3436 5980 8558
3437 3599 3844
3438 9014 5451
3439 8528 8077
3440 4537 2857
3441 883  7839
3442 6600 4131
3443 4658 8418
3444 7270 6401
3445 384  6884
3446 3004 653 
3447 7317 8594
3448 3136 4801
3449 329  4608
3450 7066 795 
3451 7144 8566
3452 7455 9870
3453 1102 8025
3454 4001 8386
3455 6227 4914
3456 578  700 
3457 3642 5756
3458 9197 784 
3459 8243 6125
3460 8528 9012
3461 3570 5800
3462 1748 8419
3463 80   5334
3464 9554 7581
3465 2057 7130
3466 3576 4478
3467 2101 1184
3468 3581 7372
3469 739  15  
3470 6599 1635
3471 3017 6912
3472 5816 6640
3473 338  7996
3474 2663 6089
3475 3738 5006
3476 1621 9114
3477 811  6377
3478 5547 8534
3479 6745 9338
3480 1484 2205
3481 758  9921
3482 8598 9377
3483 1824 5877
3484 4262 9447
3485 4359 9761
3486 1736 3521
3487 400  2376
3488 2289 4993
3489 42   6232
3490 4614 1430
3491 9803 8080
3492 9510 2717
3493 2571 5183
3494 681  6947
3495 399  9665
3496 3782 2903
3497 9104 4020
3498 6904 3243
3499 7712 4343
3500 3181 2145
3501 3819 682 
3502 6904 8699
3503 1459 529 
3504 9136 5845
3505 3792 4901
3506 2830 5150
3507 7315 2279
3508 5427 4942
3509 401  4191
3510 703  5846
3511 368  6906
3512 9438 144 
3513 628  1640
3514 6124 1290
3515 9066 4864
3516 3303 3144
3517 2838 9976
3518 452  8293
3519 1722 241 
3520 4744 9232
3521 2129 9361
3522 3813 4516
3523 9907 9532
3524 8279 8503
3525 3834 6728
3526 6964 4882
3527 7701 3047
3528 6204 1708
3529 4211 3572
3530 2859 7463
3531 2584 7283
3532 4416 160 
3533 9519 9812
3534 8800 6023
3535 3108 6076
3536 6655 8762
3537 7598 9356
3538 3270 3504
3539 3402 5545
3540 7204 4810
3541 5643 9700
3542 4230 5990
3543 2815 585 
3544 5713 5693
3545 9815 5750
3546 3075 2058
3547 1009 7038
3548 1343 3409
3549 2778 721 
3550 2947 2704
3551 9740 1941
3552 1347 1059
3553 2290 3439
3554 4398 4882
3555 115  8224
3556 9984 7235
3557 3262 4658
3558 231  6070
3559 9534 1952
3560 5108 6403
3561 771  2516
3562 8097 2441
3563 9070 7296
3564 7463 8541
3565 4029 4453
3566 2924 6504
3567 677  3071
3568 2393 8830
3569 88   1745
3570 5439 2035
3571 8548 1401
3572 6602 6913
3573 2566 5229
3574 9410 3847
3575 4370 5088
3576 4388 6505
3577 8232 7381
3578 9885 8138
3579 2931 7503
3580 6070 8946
3581 6125 1074
3582 8574 2832
3583 8368 8154
3584 5459 3892
3585 3687 8788
3586 447  7347
3587 3053 1413
3588 7077 7502
3589 9030 1922
3590 8802 9538
3591 7690 6370
3592 4351 8636
3593 1158 6493
3594 135  4347
3595 4401 9887
3596 9686 1096
3597 5219 2918
3598 1801 6335
3599 293  6172
3600 5126 2145
3601 6744 8240
3602 8350 9608
3603 3900 7311
3604 6650 6739
3605 943  5275
3606 2790 2180
3607 2913 4698
3608 1349 1197
3609 3209 1130
3610 9756 7375
3611 5427 9677
3612 2247 3892
3613 3762 4880
3614 4691 278 
3615 1974 4106
3616 6416 6379
3617 3313 1148
3618 1373 1982
3619 9827 5544
3620 8266 3227
3621 5788 7201
3622 4478 101 
3623 7076 5758
3624 7289 805 
3625 3995 1260
3626 3054 120 
3627 7250 2844
3628 9083 7813
3629 6836 4050
3630 8248 5631
3631 7635 6266
3632 3226 9790
3633 1794 5455
3634 3889 2267
3635 8944 4679
3636 6445 4779
3637 4402 970 
3638 1769 9187
3639 1477 7512
3640 493  5628
3641 6160 6291
3642 3012 1000
3643 2099 9776
3644 8868 9583
3645 1027 6367
3646 6030 5487
3647 655  6098
3648 966  3628
3649 1858 6906
3650 4857 791 
3651 5691 3918
3652 7134 9230
3653 8881 8061
3654 9805 8624
3655 1131 6008
3656 9956 2623
3657 4094 9906
3658 3713 6239
3659 7918 8132
3660 3727 8350
3661 9209 9614
3662 2858 7194
3663 3722 1399
3664 3814 8844
3665 8406 9308
3666 9102 7624
3667 7099 1973
3668 1050 1215
3669 2999 5091
3670 6377 2365
3671 9825 8082
3672 8219 8382
3673 5179 8494
3674 9204 4587
3675 4793 2764
3676 8723 952 
3677 4073 1284
3678 2161 6135
3679 3773 731 
3680 3074 9914
3681 9753 8669
3682 6500 7955
3683 141  5781
3684 167  1961
3685 5512 9870
3686 6246 1085
3687 1620 6168
3688 6285 1647
3689 9663 6441
3690 4706 9535
3691 7590 7690
3692 1535 7116
3693 1091 2792
3694 9172 9903
3695 4235 1425
3696 4024 262 
3697 6936 7643
3698 7420 2966
3699 8103 5593
3700 1715 5164
3701 8526 2228
3702 9660 6539
3703 4318 7657
3704 7172 36  
3705 8488 9428
3706 4849 9112
3707 9011 621 
3708 8067 6269
3709 884  5138
3710 6212 1803
3711 2279 352 
3712 4458 7082
3713 1503 751 
3714 3765 2064
3715 5740 9596
3716 5674 4227
3717 1730 3580
3718 6846 6357
3719 8129 7931
3720 7026 4176
3721 9931 2327
3722 1777 7639
3723 1035 6796
3724 558  7703
3725 9688 4540
3726 2872 942 
3727 4946 2448
3728 8746 6529
3729 3448 8982
3730 4733 8911
3731 1237 7220
3732 106  3013
3733 564  8566
3734 773  7973
3735 5019 6549
3736 248  9490
3737 8643 8139
3738 8389 6867
3739 3368 2085
3740 6109 6053
3741 5932 4547
3742 3678 5928
3743 8665 2465
3744 9660 4153
3745 1733 7938
3746 4042 5855
3747 4029 9329
3748 9688 3155
3749 5165 7886
3750 5260 6010
3751 3420 323 
3752 1893 7828
3753 5138 8264
3754 6183 2144
3755 7685 6341
3756 1396 8340
3757 3988 9478
3758 8334 3237
3759 9367 5873
3760 1208 8667
3761 927  8741
3762 4452 1933
3763 9801 8018
3764 9411 6170
3765 2675 8597
3766 6660 4957
3767 947  9480
3768 9254 6153
3769 2793 2750
3770 9499 3051
3771 2774 1451
3772 7232 7170
3773 2145 5791
3774 4182 8131
3775 9674 3679
3776 3071 8550
3777 3651 6231
3778 2082 6177
3779 4057 2700
3780 6213 7931
3781 8480 6978
3782 4243 7989
3783 8057 298 
3784 7540 9207
3785 9196 3713
3786 1522 6927
3787 7190 9775
3788 5872 893 
3789 9097 4745
3790 8381 855 
3791 1622 8226
3792 2007 9098
3793 907  8521
3794 7957 6333
3795 7443 6715
3796 5800 6868
3797 8725 2251
3798 8409 5231
3799 843  5843
3800 6576 5586
3801 2403 5048
3802 4292 4202
3803 979  4646
3804 2159 7650
3805 3197 8265
3806 5850 4073
3807 935  5028
3808 143  7016
3809 2310 4663
3810 5277 9432
3811 1038 5300
3812 6772 8624
3813 3394 2746
3814 7776 3585
3815 9672 4034
3816 9121 9719
3817 4266 6796
3818 5227 3511
3819 4049 8314
3820 5637 7056
3821 2166 7030
3822 8564 9826
3823 9109 6685
3824 6923 1539
3825 4487 8933
3826 9941 7981
3827 7966 3724
3828 4132 5587
3829 6955 7202
3830 9453 1600
3831 8772 1063
3832 340  633 
3833 8309 1986
3834 8460 5113
3835 3322 3235
3836 5860 6257
3837 5093 3438
3838 9695 5368
3839 6858 2792
3840 6330 1473
3841 3028 6840
3842 7656 3777
3843 8439 3356
3844 4519 205 
3845 2423 3138
3846 2448 2996
3847 5288 8113
3848 9790 1714
3849 6808 4959
3850 6763 8525
3851 9423 8844
3852 9505 4437
3853 5564 4255
3854 3481 4850
3855 4322 759 
3856 9243 1482
3857 7500 3632
3858 9427 2694
3859 8216 8763
3860 3841 3613
3861 6131 2740
3862 2537 3695
3863 4298 7378
3864 9035 1191
3865 7758 1244
3866 5971 6236
3867 8979 3283
3868 1721 9842
3869 6368 9582
3870 8132 8338
3871 2407 8684
3872 7074 6433
3873 4698 5577
3874 1222 3422
3875 2721 2931
3876 7217 5238
3877 6386 949 
3878 6385 7188
3879 1097 9194
3880 2628 5561
3881 6029 2284
3882 6113 6819
3883 6758 8306
3884 2103 721 
3885 5662 7019
3886 5751 8366
3887 7049 2384
3888 7701 1680
3889 3065 2659
3890 5765 2883
3891 8177 3144
3892 4932 2599
3893 1903 1122
3894 7517 6088
3895 5041 6849
3896 1844 7023
3897 6973 3066
3898 5833 8090
3899 3126 3860
3900 6632 8579
3901 8530 5475
3902 8662 5848
3903 668  8055
3904 2972 8022
3905 312  4154
3906 5158 5118
3907 9020 2337
3908 2101 2776
3909 393  3483
3910 5545 5103
3911 3198 3305
3912 5344 6026
3913 1860 4419
3914 7694 5335
3915 5485 9003
3916 9032 289 
3917 3042 2368
3918 9467 8548
3919 4368 2840
3920 6824 5797
3921 1482 1308
3922 3207 7390
3923 9478 482 
3924 437  362 
3925 5995 6779
3926 9321 9540
3927 4136 5154
3928 952  3973
3929 8654 653 
3930 7453 3180
3931 6231 1804
3932 5885 5893
3933 5209 4669
3934 5805 8993
3935 2025 5218
3936 5806 4455
3937 8633 5320
3938 7764 5252
3939 8630 6895
3940 9968 3618
3941 1878 3972
3942 7292 684 
3943 5573 1855
3944 4699 846 
3945 565  3112
3946 5810 3866
3947 7900 450 
3948 6640 4911
3949 614  5682
3950 8994 2012
3951 9389 6893
3952 6993 1667
3953 6810 3815
3954 1465 8949
3955 7672 4192
3956 108  4591
3957 9914 4223
3958 4278 7044
3959 4908 5855
3960 7788 6321
3961 4364 6640
3962 9733 3798
3963 3264 1309
3964 8084 2073
3965 2590 8224
3966 3244 4411
3967 2669 7811
3968 5778 6075
3969 5613 1940
3970 7383 3314
3971 380  2296
3972 5929 3170
3973 2244 6212
3974 5043 1275
3975 4789 6952
3976 8427 3133
3977 9921 6085
3978 1596 769 
3979 5076 4204
3980 3319 8872
3981 3598 8487
3982 6126 6487
3983 9152 2844
3984 6786 8806
3985 7895 1002
3986 9595 6009
3987 6217 5321
3988 6785 2567
3989 6503 5003
3990 744  6007
3991 6417 5109
3992 423  3914
3993 8540 2515
3994 609  7993
3995 444  3371
3996 2510 2596
3997 2000 4668
3998 8593 8891
3999 6454 9379
4000 2943 7142
4001 4780 9529
4002 4393 9161
4003 9210 9005
4004 9823 3614
4005 1180 8071
4006 3215 6798
4007 338  5315
4008 7240 4706
4009 946  1701
4010 6022 1439
4011 9058 4727
4012 1127 9596
4013 3544 6527
4014 2892 8513
4015 8081 7498
4016 3665 7328
4017 8357 2285
4018 4302 3334
4019 5819 5099
4020 1576 7086
4021 184  4157
4022 213  3957
4023 7366 550 
4024 5295 4134
4025 3220 8435
4026 7669 5612
4027 5794 1742
4028 4236 5878
4029 8683 9930
4030 7895 8299
4031 9832 7413
4032 4060 4547
4033 2370 4023
4034 379  5099
4035 2389 1746
4036 9351 922 
4037 3415 3473
4038 397  5465
4039 8311 8482
4040 1670 9506
4041 5546 7657
4042 6777 8993
4043 3856 6242
4044 9716 9312
4045 5532 8149
4046 3604 1244
4047 1082 1618
4048 5420 4526
4049 8181 8008
4050 6462 331 
4051 9348 8396
4052 1414 1496
4053 1542 9053
4054 5236 6337
4055 1028 2553
4056 4619 7881
4057 6245 6264
4058 5562 491 
4059 5353 4625
4060 2677 6097
4061 2459 5634
4062 379  930 
4063 8695 738 
4064 4613 3128
4065 283  2320
4066 6291 1462
4067 9194 4759
4068 8249 2568
4069 2726 8420
4070 6861 6598
4071 2976 5349
4072 3824 4341
4073 2845 8613
4074 2905 61  
4075 4501 577 
4076 4821 1160
4077 3369 4874
4078 7529 3557
4079 6748 6439
4080 4683 3965
4081 5896 4489
4082 1681 3445
4083 4493 723 
4084 688  8962
4085 3467 3545
4086 509  4496
4087 1447 4756
4088 1921 9045
4089 4319 3787
4090 6253 4503
4091 6623 3112
4092 7055 6647
4093 8966 5629
4094 9047 8157
4095 4075 2589
4096 7844 6591
4097 1552 2835
4098 8085 6048
4099 3627 1509
4100 3783 4954
4101 1106 1124
4102 3463 1747
4103 5338 2283
4104 2022 6204
4105 2830 3515
4106 8200 9553
4107 5432 9387
4108 3545 8707
4109 9079 3728
4110 8171 4223
4111 8260 5060
4112 77   6950
4113 5162 2941
4114 292  212 
4115 8228 1377
4116 5223 8635
4117 3068 3799
4118 3534 6360
4119 1216 8652
4120 8216 1432
4121 4960 8713
4122 712  7310
4123 9038 7091
4124 3827 5484
4125 9777 4526
4126 6601 7401
4127 4358 9745
4128 3795 3465
4129 6415 4824
4130 2926 6124
4131 823  8280
4132 9767 1498
4133 6563 2463
4134 4929 1918
4135 1659 577 
4136 3567 1376
4137 3818 9147
4138 5190 9158
4139 6840 8998
4140 5098 8678
4141 7346 2527
4142 9054 9080
4143 7265 370 
4144 6157 4264
4145 7641 2424
4146 5585 864 
4147 9295 7420
4148 5484 5417
4149 2110 6983
4150 5560 4777
4151 8818 4740
4152 9717 8004
4153 9582 9984
4154 368  3757
4155 3019 2090
4156 2330 4193
4157 5087 9860
4158 471  152 
4159 1894 7905
4160 3082 1574
4161 7822 6670
4162 2578 68  
4163 1793 8452
4164 4633 3706
4165 88   8044
4166 80   2420
4167 3473 1933
4168 2721 9917
4169 7821 6655
4170 4519 5821
4171 1334 3038
4172 8073 5531
4173 868  2404
4174 6413 2971
4175 9327 9202
4176 6817 9130
4177 5425 7888
4178 5767 5463
4179 7894 4272
4180 3469 4027
4181 3125 1065
4182 667  6658
4183 2903 9766
4184 189  3622
4185 4300 4449
4186 5814 6095
4187 8375 8474
4188 3126 572 
4189 8546 453 
4190 9711 4080
4191 838  2064
4192 2998 7451
4193 5131 4361
4194 8278 2451
4195 4805 6395
4196 1588 155 
4197 350  397 
4198 5723 4544
4199 758  9813
4200 389  9354
4201 1753 6993
4202 3779 7572
4203 3599 1850
4204 1353 7547
4205 3723 9763
4206 5214 5334
4207 9325 9545
4208 6722 8827
4209 6677 4664
4210 6141 5193
4211 9157 5964
4212 3264 2599
4213 2528 9418
4214 2003 224 
4215 1283 6631
4216 2427 6978
4217 7247 3251
4218 9258 4828
4219 3968 6908
4220 666  5530
4221 3158 2670
4222 2192 3449
4223 9260 1096
4224 8530 7542
4225 2213 9489
4226 324  6556
4227 4072 2082
4228 598  9189
4229 9716 7015
4230 57   9595
4231 5906 710 
4232 3624 8997
4233 2900 9204
4234 9816 272 
4235 256  2226
4236 5642 47  
4237 7108 6393
4238 2456 8045
4239 8796 6572
4240 5703 6050
4241 3838 6473
4242 6800 381 
4243 8542 1439
4244 7147 4699
4245 1991 9404
4246 8667 1494
4247 3968 9679
4248 7733 8924
4249 22   2153
4250 8554 4896
4251 2963 2177
4252 1082 3161
4253 4168 7423
4254 8014 4780
4255 8939 1236
4256 9877 9829
4257 9629 1615
4258 9981 8389
4259 750  4150
4260 2450 2166
4261 9274 7961
4262 5304 3103
4263 1825 2946
4264 3721 3637
4265 1082 8662
4266 1690 7144
4267 8195 9   
4268 5912 1485
4269 4609 252 
4270 1017 8373
4271 4683 4481
4272 1018 3038
4273 6387 1534
4274 1547 4368
4275 3031 4220
4276 7956 6292
4277 6912 8632
4278 7673 8635
4279 2727 604 
4280 8865 7924
4281 8901 9482
4282 5873 6496
4283 6164 604 
4284 2833 7161
4285 9548 9142
4286 2662 6405
4287 4946 5058
4288 6174 1680
4289 7707 2370
4290 1244 2854
4291 4181 1717
4292 5924 8806
4293 1112 2859
4294 3713 9983
4295 6563 389 
4296 3683 844 
4297 8743 8774
4298 2924 752 
4299 9884 8467
4300 6675 629 
4301 8935 6121
4302 8984 9874
4303 5599 356 
4304 9727 8869
4305 2116 2372
4306 6045 4258
4307 1743 7181
4308 8198 3431
4309 8361 194 
4310 9871 894 
4311 6005 3423
4312 3474 6366
4313 3215 1605
4314 9130 9737
4315 3749 6334
4316 6223 3160
4317 712  8237
4318 2014 7011
4319 4525 346 
4320 93   2219
4321 5873 2914
4322 6737 664 
4323 6712 6870
4324 7369 2580
4325 9854 4418
4326 7134 3656
4327 4408 5167
4328 9699 1662
4329 237  1410
4330 1201 9852
4331 699  7558
4332 1378 1529
4333 8935 5233
4334 2170 70  
4335 8934 9072
4336 9137 9796
4337 4789 7406
4338 4275 7621
4339 3645 1686
4340 2745 786 
4341 5486 6020
4342 3323 2065
4343 7121 1612
4344 9743 6153
4345 3547 1157
4346 8063 9663
4347 8517 8168
4348 147  959 
4349 122  9978
4350 1791 6455
4351 3974 4973
4352 2744 1248
4353 8986 6387
4354 6568 1289
4355 1145 4205
4356 1009 5394
4357 7248 5897
4358 4539 6809
4359 8052 8884
4360 8789 324 
4361 2117 1621
4362 6779 965 
4363 1597 1742
4364 2292 3789
4365 8915 7731
4366 9442 4329
4367 7757 3885
4368 1375 8844
4369 8338 2483
4370 9664 1247
4371 5501 3043
4372 9929 8498
4373 1683 2078
4374 3204 3179
4375 6250 8712
4376 5594 846 
4377 6845 7027
4378 4422 703 
4379 6604 2066
4380 3051 9936
4381 2074 6548
4382 7433 3745
4383 6892 800 
4384 1164 9644
4385 5513 4553
4386 5161 8380
4387 6366 395 
4388 1914 5093
4389 2322 2617
4390 3977 1973
4391 4136 5685
4392 2053 2063
4393 7988 18  
4394 9305 4060
4395 386  5393
4396 7115 5286
4397 3970 6246
4398 4567 8284
4399 2535 8493
4400 3279 1035
4401 4831 5142
4402 2380 1937
4403 3410 5586
4404 8196 2018
4405 4792 7413
4406 6551 3559
4407 1400 7967
4408 1147 9263
4409 7498 6587
4410 9040 2484
4411 4395 9359
4412 1689 3274
4413 5086 2670
4414 5819 624 
4415 854  7283
4416 7574 6733
4417 8058 6560
4418 3824 5431
4419 7761 9439
4420 1090 2871
4421 6962 4178
4422 7756 1123
4423 1984 1019
4424 3706 6039
4425 9726 9265
4426 1923 1340
4427 3409 8012
4428 4681 2084
4429 7647 9086
4430 599  3941
4431 9345 1014
4432 2782 8794
4433 6687 690 
4434 9851 6087
4435 512  2662
4436 7330 9743
4437 5003 6552
4438 7779 3557
4439 8433 2067
4440 4676 3196
4441 9063 1583
4442 4649 9647
4443 2241 9480
4444 1726 3187
4445 4791 9595
4446 8643 817 
4447 3649 1217
4448 2724 2560
4449 1036 2287
4450 9993 2881
4451 4775 8269
4452 6279 9764
4453 8271 3607
4454 4020 2070
4455 8031 274 
4456 5007 448 
4457 4911 4348
4458 1758 3882
4459 6347 9981
4460 7211 567 
4461 4614 5448
4462 3085 2803
4463 964  5653
4464 4540 4551
4465 5433 7560
4466 6236 7622
4467 9312 1921
4468 7516 9323
4469 4170 8141
4470 6548 8555
4471 4607 2669
4472 6769 3226
4473 957  7227
4474 8581 5127
4475 5944 9968
4476 5751 5341
4477 1199 1546
4478 217  2516
4479 5936 2835
4480 1037 9249
4481 7856 8235
4482 8923 2584
4483 6731 6876
4484 4179 485 
4485 6779 2248
4486 2710 3147
4487 71   5067
4488 3561 4729
4489 4519 5487
4490 601  7487
4491 879  797 
4492 201  926 
4493 3245 6483
4494 8962 3886
4495 4849 7854
4496 5413 1837
4497 7487 8923
4498 806  9296
4499 9216 7772
4500 1782 4759
4501 4264 737 
4502 5071 8355
4503 8116 2214
4504 4908 5793
4505 8548 1381
4506 4424 2090
4507 7929 7881
4508 3200 5430
4509 8525 4428
4510 5016 6493
4511 23   4031
4512 1249 8889
4513 8690 8686
4514 5818 2614
4515 9042 8177
4516 2275 7656
4517 1541 1205
4518 3589 9514
4519 2416 8553
4520 7036 924 
4521 372  7658
4522 2669 9512
4523 1521 5128
4524 8724 3276
4525 9287 699 
4526 486  8639
4527 767  7249
4528 6780 5024
4529 1052 6714
4530 7607 6948
4531 6910 58  
4532 3090 1529
4533 6698 1162
4534 6922 2054
4535 5456 8701
4536 6151 8755
4537 711  243 
4538 2986 8078
4539 6536 7165
4540 4149 5926
4541 9597 9915
4542 1463 4057
4543 6313 5813
4544 443  9427
4545 2794 3901
4546 203  9241
4547 9123 6542
4548 5140 6233
4549 7645 5629
4550 8939 3582
4551 7604 7499
4552 3582 5366
4553 1481 7607
4554 9362 3060
4555 5610 2955
4556 7378 9228
4557 7346 6914
4558 2224 6888
4559 3929 7719
4560 9607 5971
4561 8494 5007
4562 2726 8152
4563 2320 4372
4564 4712 2769
4565 8675 9105
4566 4186 5743
4567 2352 4720
4568 2934 9325
4569 1012 8767
4570 8464 8180
4571 3508 9777
4572 8699 1070
4573 6534 1532
4574 3461 9137
4575 3644 4156
4576 8627 465 
4577 5378 9258
4578 9669 8384
4579 2957 3167
4580 6137 4874
4581 6540 3636
4582 1725 1311
4583 463  2335
4584 2080 3692
4585 921  5255
4586 1476 7992
4587 1873 4045
4588 5086 1426
4589 4416 4168
4590 9798 7024
4591 3724 7393
4592 5434 1562
4593 2962 5445
4594 4432 4611
4595 6308 7025
4596 9794 7587
4597 5257 5311
4598 4827 3007
4599 6854 2417
4600 9279 654 
4601 59   4382
4602 9597 6791
4603 1093 2830
4604 5341 1048
4605 9282 9753
4606 510  4164
4607 6613 1465
4608 3158 2476
4609 3964 7656
4610 3626 2194
4611 8396 93  
4612 3899 7714
4613 1586 5963
4614 6041 7721
4615 1008 68  
4616 6920 1784
4617 6959 697 
4618 5350 9665
4619 5509 2988
4620 5595 3725
4621 6295 6432
4622 9063 1546
4623 3130 5113
4624 6378 6064
4625 5739 8796
4626 8088 9358
4627 7430 8411
4628 7550 1115
4629 6959 6744
4630 8464 1668
4631 7591 8838
4632 1987 9908
4633 7883 7893
4634 324  488 
4635 9242 9276
4636 7802 1922
4637 9271 5033
4638 3941 3252
4639 7909 5051
4640 3468 5980
4641 6654 2189
4642 2905 7307
4643 9038 6878
4644 9259 2651
4645 8903 2812
4646 2621 4793
4647 7288 6613
4648 7911 411 
4649 812  5381
4650 6876 6644
4651 1484 7940
4652 1441 5226
4653 3625 2194
4654 2610 85  
4655 5055 7432
4656 6119 7739
4657 7662 4161
4658 7475 4245
4659 6613 2836
4660 5499 9359
4661 6343 9791
4662 2510 4887
4663 6286 6920
4664 1402 4761
4665 4778 2537
4666 7627 3204
4667 6576 7548
4668 5765 2645
4669 6289 1485
4670 1127 9031
4671 7300 5883
4672 6091 2179
4673 7700 2109
4674 4466 518 
4675 2491 3836
4676 2224 9458
4677 2904 831 
4678 6535 9711
4679 9974 8689
4680 880  904 
4681 2933 8605
4682 2811 9517
4683 9821 9976
4684 7295 1955
4685 276  2062
4686 7500 245 
4687 9939 7153
4688 3842 4724
4689 4994 2292
4690 4128 2316
4691 4270 8410
4692 3176 9448
4693 7006 9904
4694 9666 8194
4695 1760 9950
4696 2600 3781
4697 6847 6771
4698 7626 6229
4699 4526 5679
4700 4730 1226
4701 7400 6875
4702 2299 480 
4703 1117 978 
4704 1301 6647
4705 9082 6748
4706 2684 9430
4707 3499 4989
4708 6432 2380
4709 4777 5304
4710 1054 8449
4711 9388 4928
4712 8603 4047
4713 666  1284
4714 8231 3936
4715 8278 5846
4716 3628 6432
4717 7167 5228
4718 5625 5036
4719 7327 2385
4720 9805 9979
4721 7811 1564
4722 8824 553 
4723 7186 3830
4724 1476 6989
4725 3114 6638
4726 289  5752
4727 4461 8162
4728 7443 6651
4729 8033 9106
4730 1227 6935
4731 3035 7077
4732 5340 1325
4733 7234 1892
4734 1654 9758
4735 8099 312 
4736 1433 6397
4737 3931 2068
4738 2744 8017
4739 2111 83  
4740 7213 474 
4741 3220 8798
4742 8988 8803
4743 8344 6564
4744 1412 5197
4745 7075 8752
4746 4633 4866
4747 5266 9055
4748 8405 6104
4749 8148 2710
4750 2128 4060
4751 1832 103 
4752 3244 8650
4753 2070 1086
4754 8349 5547
4755 7075 3228
4756 980  708 
4757 2932 7533
4758 2090 9579
4759 4763 2032
4760 7300 4021
4761 4792 7231
4762 6188 2881
4763 8049 8489
4764 179  2434
4765 9781 6271
4766 626  6633
4767 5412 3233
4768 8316 5426
4769 2076 641 
4770 445  8168
4771 3753 3786
4772 3241 5118
4773 4972 29  
4774 1530 8333
4775 213  142 
4776 8731 2491
4777 6785 90  
4778 765  4585
4779 3045 9298
4780 6619 8787
4781 1963 6657
4782 6798 9801
4783 7017 8885
4784 8547 8905
4785 6268 5883
4786 8617 3462
4787 5687 664 
4788 3521 1122
4789 7896 2661
4790 6899 3128
4791 779  5850
4792 4976 627 
4793 6367 2442
4794 5902 7120
4795 9256 2261
4796 8911 1743
4797 2469 4675
4798 5050 5728
4799 7231 1616
4800 186  3   
4801 6615 1250
4802 9862 5022
4803 2515 5654
4804 4195 592 
4805 8975 8548
4806 2001 4230
4807 9992 6678
4808 2592 5816
4809 7120 7003
4810 981  6277
4811 4756 8482
4812 4103 656 
4813 6871 7264
4814 1042 6229
4815 412  8562
4816 3547 6290
4817 3528 8522
4818 8456 1203
4819 2049 6794
4820 7264 3554
4821 5952 6146
4822 7524 2792
4823 6706 1839
4824 7979 8771
4825 1712 5301
4826 8723 2061
4827 1044 367 
4828 3171 9604
4829 7939 6827
4830 3400 5391
4831 2372 2237
4832 3241 4029
4833 2616 3534
4834 5773 9266
4835 7944 9690
4836 755  4210
4837 9376 3801
4838 9030 7342
4839 4329 186 
4840 5161 8576
4841 4154 7211
4842 5488 9679
4843 7360 6631
4844 9422 5741
4845 9114 6050
4846 540  3566
4847 7848 4549
4848 6610 4811
4849 154  8009
4850 1161 947 
4851 7871 353 
4852 9565 41  
4853 3879 3629
4854 2835 6308
4855 8085 9736
4856 7416 7479
4857 9981 6894
4858 3854 156 
4859 5679 6295
4860 7112 6260
4861 4407 5422
4862 8247 8975
4863 3644 6848
4864 9328 8364
4865 2852 2759
4866 5002 8356
4867 8220 4720
4868 287  9430
4869 3571 1174
4870 5269 9709
4871 426  4874
4872 7965 9675
4873 1100 3966
4874 3691 5659
4875 1590 9981
4876 588  6698
4877 4106 8540
4878 7578 5586
4879 2904 1139
4880 3799 4177
4881 1979 6762
4882 104  4179
4883 8727 4216
4884 9099 2768
4885 6794 2335
4886 7042 3549
4887 6363 9999
4888 9072 6273
4889 9801 5072
4890 8374 3583
4891 7273 8941
4892 540  3261
4893 7745 9839
4894 8591 7219
4895 7551 1120
4896 3815 4462
4897 8168 3808
4898 8775 5407
4899 2172 7278
4900 1614 1181
4901 4427 8195
4902 8982 7621
4903 5127 3833
4904 2410 5461
4905 7014 7384
4906 8194 2360
4907 7061 977 
4908 7503 7461
4909 5044 7204
4910 9390 8029
4911 5883 8759
4912 9220 9116
4913 960  4800
4914 5498 7380
4915 2005 8663
4916 437  3895
4917 8641 3462
4918 3093 4524
4919 8544 183 
4920 7571 2357
4921 9171 786 
4922 2622 5231
4923 7999 4658
4924 713  661 
4925 8035 2593
4926 164  9742
4927 61   2965
4928 9742 3307
4929 7424 4143
4930 8550 2923
4931 3790 5985
4932 1346 1977
4933 8070 1078
4934 2732 3197
4935 9056 2052
4936 4405 1778
4937 8557 4522
4938 9548 2889
4939 6060 2184
4940 1502 1344
4941 9602 6281
4942 4766 2441
4943 2756 5113
4944 775  8921
4945 3891 6922
4946 922  9656
4947 9741 769 
4948 3141 9331
4949 1833 6129
4950 7295 1120
4951 1135 3263
4952 7896 8629
4953 1581 8995
4954 8390 6460
4955 6338 5108
4956 7045 7069
4957 6135 7076
4958 2696 6561
4959 4701 4745
4960 9724 3754
4961 305  6238
4962 310  9872
4963 1526 4700
4964 9692 8204
4965 1095 2536
4966 3916 3337
4967 1326 1904
4968 3453 1037
4969 9004 1872
4970 827  2463
4971 4463 524 
4972 293  6436
4973 3366 5640
4974 7130 9972
4975 8084 854 
4976 5021 9336
4977 6794 3249
4978 4504 1095
4979 6260 7339
4980 5714 9658
4981 1615 6102
4982 8060 8127
4983 2480 394 
4984 233  3074
4985 1065 1571
4986 2795 312 
4987 5072 8941
4988 4534 3477
4989 4359 9379
4990 1108 8355
4991 4178 3183
4992 6795 2812
4993 2254 2210
4994 8705 1368
4995 5605 976 
4996 648  362 
4997 6978 844 
4998 8844 3421
4999 2567 8918
5000 8192 7251
5001 4968 917 
5002 5350 7167
5003 1267 1134
5004 7556 986 
5005 5164 8036
5006 2885 7866
5007 7963 6533
5008 7581 9166
5009 8124 4973
5010 672  606 
5011 5434 4377
5012 526  2493
5013 7276 1123
5014 8600 2451
5015 5708 5703
5016 6855 5741
5017 3537 9620
5018 9287 5630
5019 341  7722
5020 4768 8746
5021 8583 6806
5022 7999 7029
5023 1977 6312
5024 8385 2345
5025 6870 4373
5026 5717 1145
5027 288  3963
5028 1422 1244
5029 9460 6371
5030 8619 5820
5031 3236 5781
5032 490  9053
5033 4427 1657
5034 8038 4346
5035 9975 1945
5036 7296 5814
5037 2244 3515
5038 5010 6863
5039 6822 7135
5040 4500 3104
5041 6368 2385
5042 1687 9923
5043 3959 341 
5044 7955 3893
5045 4773 8787
5046 3032 7524
5047 4881 7317
5048 7516 6464
5049 4689 6843
5050 6868 5804
5051 2086 2653
5052 7651 9577
5053 9499 8721
5054 2631 8700
5055 2826 4739
5056 7912 4111
5057 1389 9664
5058 6250 2513
5059 665  1535
5060 269  2757
5061 9539 5301
5062 3370 8052
5063 3531 4974
5064 5018 2543
5065 8299 8209
5066 4955 620 
5067 3228 4296
5068 3960 162 
5069 7491 4698
5070 6961 6651
5071 1529 2339
5072 4407 2262
5073 6918 6723
5074 4498 7757
5075 2560 6939
5076 8562 9740
5077 7823 9817
5078 2795 4727
5079 2625 3708
5080 1660 1344
5081 9262 1667
5082 6916 8565
5083 2105 3176
5084 3763 4097
5085 621  2580
5086 8728 7817
5087 3667 744 
5088 1148 2394
5089 8122 4434
5090 1276 9074
5091 226  4210
5092 589  8825
5093 7960 5784
5094 4561 9231
5095 7053 5571
5096 6052 8570
5097 1814 1566
5098 8994 9479
5099 3071 7688
5100 7896 6077
5101 379  4622
5102 8012 2395
5103 5529 6354
5104 9379 235 
5105 7499 7549
5106 5443 9384
5107 9674 1493
5108 9710 5315
5109 2980 5428
5110 7350 344 
5111 6983 8774
5112 562  3199
5113 7770 4371
5114 7369 4762
5115 5582 1354
5116 6965 4640
5117 3140 5398
5118 5325 8189
5119 849  4443
5120 926  3538
5121 3946 7971
5122 5767 2653
5123 9288 4900
5124 344  5778
5125 5417 8949
5126 3551 2869
5127 6125 7083
5128 2419 8168
5129 5439 1254
5130 4238 9988
5131 5740 5671
5132 7952 6888
5133 6402 8404
5134 2467 3518
5135 7750 8547
5136 9862 9218
5137 4577 1395
5138 2389 3408
5139 2210 1360
5140 3033 381 
5141 9156 3580
5142 1332 921 
5143 9740 5012
5144 8415 3324
5145 7468 1103
5146 2508 2164
5147 2922 4249
5148 1197 7   
5149 9617 2149
5150 6819 8281
5151 5121 9379
5152 8313 7583
5153 5273 7192
5154 1142 4528
5155 20   165 
5156 3036 5612
5157 31   2023
5158 4496 4702
5159 9547 3492
5160 9926 7688
5161 540  9730
5162 3637 3593
5163 6374 9647
5164 2397 6746
5165 2567 756 
5166 4578 2515
5167 993  8199
5168 47   113 
5169 7395 5954
5170 4738 3302
5171 1168 5747
5172 2577 7794
5173 5887 4902
5174 6788 6758
5175 6898 4728
5176 3011 3562
5177 2839 9442
5178 4515 7413
5179 8398 4226
5180 539  3648
5181 7901 6278
5182 4030 8059
5183 2868 2708
5184 9178 546 
5185 914  9309
5186 2252 9988
5187 842  2011
5188 9218 4825
5189 4161 4320
5190 4825 7945
5191 9616 6824
5192 3953 7457
5193 9448 4862
5194 9635 7133
5195 4641 8202
5196 6144 4448
5197 3388 708 
5198 3917 4686
5199 7295 8083
5200 3456 4473
5201 3431 3538
5202 6018 7523
5203 1861 5248
5204 3561 5477
5205 5262 9736
5206 9382 5924
5207 9959 2926
5208 125  8949
5209 6337 6322
5210 7187 3862
5211 5855 4320
5212 9161 8487
5213 9980 2725
5214 7439 7692
5215 5946 8737
5216 3569 6855
5217 7727 217 
5218 5123 9814
5219 4254 5329
5220 4052 8348
5221 3283 3146
5222 9142 6873
5223 7461 8683
5224 1362 9103
5225 5781 407 
5226 8880 1888
5227 6568 3879
5228 3539 234 
5229 1931 2994
5230 2321 6480
5231 9163 3271
5232 9828 2726
5233 7098 30  
5234 3726 5408
5235 246  9777
5236 2569 669 
5237 3779 7218
5238 8268 9567
5239 104  4125
5240 484  6357
5241 7971 2801
5242 464  2641
5243 3781 8714
5244 985  6161
5245 9476 5115
5246 9173 958 
5247 4205 2663
5248 72   9608
5249 5407 450 
5250 6144 2761
5251 2940 5037
5252 4410 7501
5253 3808 9516
5254 7593 2045
5255 7782 9620
5256 8754 3026
5257 8827 5084
5258 5281 8705
5259 6184 8269
5260 9481 5366
5261 2719 3404
5262 1815 8921
5263 4229 8382
5264 8299 2710
5265 965  4929
5266 5715 254 
5267 6723 7072
5268 5510 1795
5269 3211 4535
5270 8443 2721
5271 6134 9911
5272 3682 550 
5273 9752 3879
5274 1038 9957
5275 4904 3424
5276 2855 4144
5277 1921 93  
5278 8606 2884
5279 1393 1742
5280 5941 9460
5281 2248 7325
5282 9396 6149
5283 4981 9503
5284 1944 6347
5285 1056 7254
5286 1744 3888
5287 6591 19  
5288 6499 3036
5289 6594 4652
5290 5600 1535
5291 6220 3766
5292 6012 6296
5293 4009 6656
5294 6968 2781
5295 9949 1448
5296 682  1903
5297 5524 3015
5298 2530 4086
5299 4316 7297
5300 9049 220 
5301 3260 632 
5302 5071 12  
5303 8241 5395
5304 7076 3558
5305 6042 7776
5306 7398 9029
5307 5019 655 
5308 9611 2562
5309 2158 4728
5310 6794 6770
5311 3965 8024
5312 7383 769 
5313 7046 683 
5314 1381 4524
5315 8690 3802
5316 9427 8226
5317 1073 387 
5318 6654 8287
5319 2533 2530
5320 7002 7410
5321 3979 743 
5322 4256 9465
5323 4118 3120
5324 688  5370
5325 676  4062
5326 3380 5626
5327 3086 2373
5328 7469 6927
5329 3007 9359
5330 3494 9635
5331 1655 5685
5332 7906 9816
5333 9631 5184
5334 70   1419
5335 6027 6217
5336 5797 775 
5337 6960 366 
5338 7206 1587
5339 4678 8233
5340 6513 4664
5341 6826 3054
5342 1638 2102
5343 2713 4643
5344 5719 9177
5345 2290 8195
5346 3168 8364
5347 2181 630 
5348 2421 3985
5349 4031 4970
5350 9927 2456
5351 5176 3802
5352 9932 7891
5353 1639 4050
5354 2967 6817
5355 9011 2483
5356 8507 6840
5357 4028 2294
5358 9199 966 
5359 8590 2458
5360 1700 9599
5361 7483 7721
5362 8705 7541
5363 1211 6977
5364 1228 3308
5365 8493 1690
5366 2727 115 
5367 8666 7422
5368 3659 2580
5369 1234 713 
5370 2386 991 
5371 9992 4623
5372 2848 5947
5373 2699 3263
5374 6158 5627
5375 9994 2760
5376 5609 6882
5377 6531 5675
5378 9648 7450
5379 9438 9288
5380 5607 997 
5381 5555 4267
5382 7707 5293
5383 9116 9813
5384 4881 4601
5385 6763 3847
5386 3279 5350
5387 2559 9379
5388 6061 2783
5389 3552 1704
5390 908  5910
5391 4487 1730
5392 1635 4848
5393 9440 3166
5394 9810 448 
5395 7588 9350
5396 410  6845
5397 4606 6793
5398 1162 7794
5399 4138 4310
5400 3565 4729
5401 8524 7090
5402 4546 6989
5403 1634 9240
5404 5435 4988
5405 1860 1159
5406 2207 713 
5407 2977 2490
5408 359  9869
5409 5271 4727
5410 237  8709
5411 4367 5697
5412 2690 4333
5413 1071 509 
5414 6086 6703
5415 3119 1101
5416 7613 2168
5417 4939 6281
5418 7017 1886
5419 6280 7941
5420 1594 4058
5421 9213 339 
5422 9415 3067
5423 131  5642
5424 8331 4931
5425 8825 347 
5426 2942 1552
5427 313  4872
5428 7784 3098
5429 1242 4760
5430 5530 6049
5431 2569 4783
5432 9371 9066
5433 3579 9919
5434 1355 8970
5435 6003 1818
5436 1390 2317
5437 5614 4992
5438 6881 3964
5439 5133 7603
5440 2333 9927
5441 8741 5869
5442 9737 5628
5443 9068 4581
5444 4448 8393
5445 8269 3541
5446 9249 9826
5447 8972 1262
5448 3431 5242
5449 9693 8816
5450 2032 5547
5451 1045 7359
5452 9570 547 
5453 4603 9608
5454 6621 1094
5455 3952 3908
5456 4204 2861
5457 5303 2278
5458 3967 3296
5459 5400 6516
5460 2200 2473
5461 4271 6198
5462 4326 5255
5463 2487 5738
5464 3263 8592
5465 2130 6172
5466 2012 416 
5467 1840 5081
5468 9451 5927
5469 5580 8986
5470 3719 3003
5471 3159 5058
5472 8442 9097
5473 6643 7766
5474 4078 20  
5475 4923 9858
5476 9401 3164
5477 977  5551
5478 8905 9754
5479 1965 6412
5480 2213 3501
5481 6008 228 
5482 7412 4124
5483 5774 6857
5484 7447 7396
5485 4138 3877
5486 4805 4479
5487 2335 5134
5488 3280 4407
5489 1134 7494
5490 3705 623 
5491 8495 1166
5492 4811 3427
5493 1900 7920
5494 622  1003
5495 2544 976 
5496 3029 3343
5497 2411 6783
5498 6406 2911
5499 9709 3643
5500 1135 6151
5501 4793 6050
5502 9129 5868
5503 1853 2417
5504 7002 407 
5505 8444 6314
5506 3915 1820
5507 889  7097
5508 8269 9584
5509 9237 9201
5510 3130 9166
5511 7141 7053
5512 2926 7622
5513 4350 485 
5514 1576 3440
5515 5706 6294
5516 4685 5804
5517 7286 1848
5518 3001 5170
5519 4829 8756
5520 2877 9965
5521 4730 5561
5522 1285 8837
5523 8556 2070
5524 4586 9449
5525 1425 9107
5526 9234 8812
5527 2821 6795
5528 3602 9339
5529 146  3389
5530 6700 1323
5531 4744 657 
5532 7095 2386
5533 4898 390 
5534 7145 9366
5535 8036 6850
5536 3231 915 
5537 7485 148 
5538 7275 3872
5539 8697 896 
5540 8841 7040
5541 6431 9508
5542 1507 8244
5543 5156 3918
5544 3902 5931
5545 5349 9884
5546 5437 264 
5547 5318 6077
5548 6120 5394
5549 9448 7579
5550 9761 4318
5551 2688 5077
5552 3739 6008
5553 7290 2367
5554 2424 9313
5555 2822 2715
5556 6554 4333
5557 5695 2091
5558 6418 7194
5559 5076 4988
5560 7697 2871
5561 3896 842 
5562 6813 5190
5563 148  6527
5564 942  4978
5565 3179 7768
5566 2370 3419
5567 8701 1073
5568 6449 2021
5569 3481 4401
5570 4782 3717
5571 6376 3094
5572 2259 6554
5573 3595 2370
5574 6217 4118
5575 7400 1844
5576 5812 7443
5577 8142 8681
5578 9151 8747
5579 7139 825 
5580 9891 9333
5581 8093 8364
5582 1223 8938
5583 5053 1550
5584 9061 6473
5585 8494 6858
5586 4360 3245
5587 2385 4224
5588 3181 8573
5589 7928 9602
5590 8611 5028
5591 641  8021
5592 6605 6532
5593 2117 2542
5594 8825 5517
5595 1959 7088
5596 3594 4256
5597 8695 2087
5598 3867 97  
5599 6199 7875
5600 5595 6088
5601 5041 1563
5602 8357 1623
5603 8724 4761
5604 2372 9833
5605 3791 6111
5606 1849 181 
5607 4479 3840
5608 707  8522
5609 8216 5114
5610 6003 982 
5611 1028 3764
5612 8292 8315
5613 7700 1833
5614 5699 2982
5615 5534 8638
5616 9398 5990
5617 9478 5801
5618 4972 5659
5619 1973 2427
5620 820  1252
5621 5753 2835
5622 8102 8387
5623 6032 6464
5624 9034 3546
5625 2743 8594
5626 684  5717
5627 8041 9340
5628 154  2824
5629 6625 2707
5630 3693 6194
5631 4059 8425
5632 7720 1645
5633 2790 8949
5634 7052 3602
5635 8321 9472
5636 4685 4671
5637 972  854 
5638 5983 8082
5639 9515 8130
5640 1193 9091
5641 523  3836
5642 5613 2992
5643 5269 9439
5644 29   7351
5645 9935 5949
5646 4960 1252
5647 1058 2318
5648 7017 8141
5649 507  6458
5650 2879 9515
5651 3927 3068
5652 8019 100 
5653 847  1258
5654 5366 329 
5655 1103 7305
5656 1208 7552
5657 2900 8283
5658 7691 8333
5659 4077 4547
5660 7267 2561
5661 6676 4000
5662 2515 1167
5663 1389 5500
5664 2719 7586
5665 4572 173 
5666 3647 4765
5667 7084 1696
5668 4170 1872
5669 6864 7102
5670 5975 9554
5671 2545 3050
5672 5300 4830
5673 1262 3174
5674 710  6317
5675 7757 14  
5676 5923 7936
5677 595  3044
5678 2242 9175
5679 5699 8508
5680 1516 6140
5681 6315 6009
5682 381  3495
5683 2898 2659
5684 7766 5139
5685 3567 1860
5686 3226 3664
5687 1892 6849
5688 4059 4924
5689 1571 3052
5690 8611 4894
5691 1690 8453
5692 6167 7963
5693 2131 9332
5694 6565 8253
5695 715  5991
5696 5969 1899
5697 2446 4530
5698 9947 6265
5699 679  125 
5700 3755 8344
5701 5748 9036
5702 7730 1846
5703 6346 8465
5704 5950 1687
5705 7162 7496
5706 2362 69  
5707 8071 2053
5708 9152 2629
5709 2441 4379
5710 3752 2529
5711 3218 6608
5712 6741 1029
5713 965  2121
5714 2895 1632
5715 4293 249 
5716 7412 5124
5717 9709 6570
5718 181  3567
5719 445  7485
5720 858  2689
5721 7611 7022
5722 1588 3591
5723 8023 2393
5724 4880 5120
5725 1425 3699
5726 153  3314
5727 4739 4215
5728 7928 3323
5729 8416 301 
5730 1971 8229
5731 6311 1669
5732 5841 5753
5733 3886 1141
5734 2892 509 
5735 6492 4474
5736 8217 477 
5737 4194 4797
5738 4736 5209
5739 7788 317 
5740 9287 5923
5741 5412 3079
5742 3205 5478
5743 1196 5242
5744 3750 7329
5745 436  8617
5746 8275 1950
5747 2659 9517
5748 6161 3616
5749 412  20  
5750 3714 7664
5751 2322 9826
5752 5762 9121
5753 933  5792
5754 9412 6979
5755 8417 3604
5756 9709 7286
5757 3218 1430
5758 3371 4779
5759 4859 5429
5760 6588 8777
5761 9709 9360
5762 1220 2935
5763 1421 5863
5764 9094 3122
5765 5251 138 
5766 5658 6879
5767 7122 3664
5768 7665 4514
5769 4074 23  
5770 8452 2978
5771 5988 9319
5772 8228 7049
5773 5415 4449
5774 8234 1810
5775 1346 7958
5776 2363 7813
5777 1828 742 
5778 343  9085
5779 4225 8875
5780 3154 682 
5781 8935 5012
5782 2229 6169
5783 2814 4193
5784 6527 9874
5785 9078 6703
5786 4653 305 
5787 5330 5532
5788 2503 7967
5789 5114 8778
5790 7537 7429
5791 4143 8387
5792 825  1464
5793 1254 127 
5794 9843 3458
5795 1294 5922
5796 1407 4351
5797 3129 8624
5798 9257 9231
5799 8903 1335
5800 7781 3081
5801 4816 4710
5802 847  3126
5803 8899 7811
5804 2052 5316
5805 9544 8992
5806 7428 3372
5807 4889 7844
5808 8943 2484
5809 3919 7811
5810 2553 9447
5811 9532 5442
5812 8709 4409
5813 7359 2797
5814 9546 4163
5815 4484 3114
5816 8951 5855
5817 637  3837
5818 3248 1282
5819 4166 7543
5820 6629 4954
5821 8022 3713
5822 5917 7047
5823 4771 5908
5824 6231 6583
5825 9463 2057
5826 7543 6479
5827 3626 4261
5828 9502 3130
5829 7247 3928
5830 1235 3635
5831 444  8873
5832 6516 3262
5833 4934 4926
5834 8437 3524
5835 2139 6564
5836 4289 778 
5837 5246 6223
5838 9907 4348
5839 3402 2507
5840 3442 1991
5841 7840 1520
5842 6799 6109
5843 8235 4597
5844 7637 1606
5845 338  4757
5846 79   5475
5847 6948 6500
5848 3519 9809
5849 5771 7479
5850 7791 9230
5851 621  1440
5852 6133 4467
5853 7705 8349
5854 5541 8939
5855 4503 9696
5856 1706 7835
5857 1938 8063
5858 5974 995 
5859 1811 5008
5860 4959 731 
5861 7742 2950
5862 8420 8231
5863 2773 4949
5864 2609 4316
5865 4889 1874
5866 3668 9570
5867 8595 4078
5868 598  9639
5869 7035 3755
5870 5121 3640
5871 5056 5216
5872 453  4257
5873 2998 9251
5874 2945 6680
5875 7853 1583
5876 7616 9607
5877 8358 2232
5878 4276 1412
5879 4837 4328
5880 5393 6095
5881 7968 1814
5882 5421 9827
5883 9260 2227
5884 5694 5374
5885 6496 9999
5886 959  9449
5887 1236 2208
5888 3066 3746
5889 1622 1949
5890 9035 148 
5891 183  26  
5892 4930 1049
5893 6205 8110
5894 2469 1760
5895 1962 4349
5896 8731 5620
5897 837  1829
5898 5504 435 
5899 8949 247 
5900 9450 6253
5901 4055 1676
5902 7420 6349
5903 2575 5189
5904 8098 466 
5905 1217 3185
5906 9655 5140
5907 1643 9818
5908 9814 9810
5909 7423 3928
5910 4572 6580
5911 7353 7990
5912 712  4722
5913 8764 2125
5914 705  6612
5915 6119 8628
5916 9361 2085
5917 8310 7695
5918 3664 2971
5919 198  759 
5920 1703 1296
5921 2518 3288
5922 1607 5057
5923 8194 1224
5924 8929 8270
5925 1700 9132
5926 3451 3543
5927 6312 9260
5928 9223 9860
5929 3596 9833
5930 3922 7203
5931 9391 1282
5932 5455 6915
5933 4455 7666
5934 2280 5609
5935 4887 84  
5936 6264 6370
5937 4335 5479
5938 1534 6896
5939 9240 6508
5940 7223 305 
5941 1209 3227
5942 2650 3082
5943 6880 2974
5944 2418 8597
5945 127  6771
5946 8697 2003
5947 5604 7675
5948 2425 2727
5949 1381 3342
5950 771  5350
5951 1168 2579
5952 6686 6235
5953 9319 1440
5954 2410 2032
5955 2401 6415
5956 4981 606 
5957 9261 1383
5958 9244 1895
5959 4415 5269
5960 4198 5999
5961 9441 6111
5962 2732 7636
5963 9090 8466
5964 1181 777 
5965 8380 9642
5966 9467 6800
5967 5868 9489
5968 3478 1117
5969 4368 4340
5970 6775 1476
5971 2660 5545
5972 651  3615
5973 5535 9519
5974 9327 4476
5975 4889 8373
5976 8715 6698
5977 2583 3594
5978 9120 3277
5979 1041 6617
5980 6678 7612
5981 4319 3925
5982 5701 7039
5983 1755 7096
5984 3    4232
5985 740  2741
5986 9047 101 
5987 3763 71  
5988 8021 9407
5989 2875 63  
5990 4883 4458
5991 4912 8046
5992 6529 342 
5993 9807 2809
5994 8761 5070
5995 3887 3172
5996 8703 4446
5997 776  5264
5998 2837 88  
5999 9611 3175
6000 9689 7122
6001 6893 4410
6002 13   123 
6003 9097 3677
6004 2441 3600
6005 2627 2249
6006 3618 8419
6007 2824 2864
6008 306  2666
6009 6312 2851
6010 6691 7385
6011 8373 9088
6012 9279 8964
6013 4114 7793
6014 3231 7323
6015 2292 7526
6016 2721 3626
6017 5825 5598
6018 5085 7493
6019 8854 3413
6020 2875 3361
6021 7619 3894
6022 213  4254
6023 9527 667 
6024 1803 6476
6025 5697 5685
6026 4719 6733
6027 5282 6024
6028 3718 5529
6029 8204 7620
6030 1970 1970
6031 8553 8378
6032 9413 6737
6033 492  6463
6034 7492 1164
6035 2083 9167
6036 3601 4264
6037 8293 9247
6038 74   6699
6039 9580 436 
6040 1943 7755
6041 2258 740 
6042 3156 3133
6043 450  5143
6044 7574 500 
6045 1286 7580
6046 6889 2117
6047 9230 8164
6048 7186 4046
6049 7505 6708
6050 3224 1038
6051 393  4900
6052 9102 7566
6053 2509 2644
6054 2999 5208
6055 3044 9253
6056 2081 5869
6057 3490 5731
6058 9798 9541
6059 6493 4554
6060 7786 5241
6061 5035 6845
6062 4526 236 
6063 5241 2177
6064 898  4495
6065 8786 5045
6066 7961 7976
6067 4927 9365
6068 8891 9856
6069 946  7116
6070 9556 6868
6071 9181 1644
6072 7626 4291
6073 5045 5843
6074 1791 5426
6075 2278 9948
6076 5894 778 
6077 5936 7576
6078 9218 9554
6079 9667 4480
6080 7112 9526
6081 5499 2462
6082 884  7283
6083 4318 3877
6084 6906 967 
6085 8385 2368
6086 6668 1212
6087 7203 1329
6088 7627 2385
6089 6511 1044
6090 8791 9052
6091 3624 8796
6092 5985 4961
6093 7460 9673
6094 3277 4557
6095 9313 6742
6096 1875 8915
6097 5575 9036
6098 4942 5689
6099 3375 9704
6100 9915 2102
6101 472  6886
6102 4952 731 
6103 4705 6261
6104 7173 5799
6105 8051 667 
6106 5322 8408
6107 2886 8630
6108 7437 8447
6109 7691 3975
6110 5646 813 
6111 2794 3733
6112 8451 2409
6113 2116 5238
6114 1298 2315
6115 6381 4364
6116 3572 8953
6117 3948 2811
6118 9678 2471
6119 7457 2159
6120 2464 5129
6121 505  7779
6122 3740 2930
6123 4205 2659
6124 5765 5601
6125 9581 5346
6126 6456 7857
6127 1374 1634
6128 7030 8672
6129 1691 225 
6130 5283 9836
6131 4061 5768
6132 975  5515
6133 4337 2819
6134 330  8448
6135 7992 4875
6136 5036 1620
6137 7279 2282
6138 6963 3832
6139 5115 5770
6140 215  5779
6141 5175 3049
6142 8436 1735
6143 2156 2000
6144 3202 1198
6145 5774 1303
6146 9660 6872
6147 3881 5979
6148 3965 3741
6149 9767 3897
6150 829  4246
6151 7611 4496
6152 8385 4540
6153 6138 2323
6154 5657 6825
6155 9154 8401
6156 4737 8111
6157 6874 7019
6158 4887 8399
6159 50   5405
6160 4468 3175
6161 7253 8869
6162 1506 359 
6163 1151 7090
6164 138  3571
6165 3118 428 
6166 3600 8726
6167 1972 5372
6168 8625 7638
6169 3166 8199
6170 7913 7174
6171 7632 1827
6172 8517 2286
6173 4021 583 
6174 6530 6395
6175 8652 483 
6176 5915 7958
6177 6501 8582
6178 9098 4141
6179 2    954 
6180 9823 7483
6181 5304 8813
6182 4499 1576
6183 8051 1692
6184 8834 1628
6185 7394 2252
6186 7815 950 
6187 9170 7402
6188 6359 4228
6189 4932 1928
6190 6130 9722
6191 9775 5212
6192 47   5998
6193 4953 7633
6194 5040 5252
6195 6130 2257
6196 2316 5221
6197 4482 5686
6198 7575 6029
6199 5001 9696
6200 2524 6687
6201 9840 4955
6202 9832 1395
6203 7683 6812
6204 7955 7011
6205 9754 3334
6206 4724 814 
6207 4451 2090
6208 4613 1976
6209 9167 1040
6210 1758 9281
6211 3089 8290
6212 5693 1814
6213 490  2106
6214 3945 6578
6215 6179 7162
6216 6032 600 
6217 2413 7477
6218 1268 9744
6219 6890 6239
6220 6570 141 
6221 2562 6122
6222 1002 7189
6223 3194 9310
6224 144  5455
6225 3128 4222
6226 6415 2552
6227 5568 7838
6228 333  9652
6229 6424 6901
6230 6400 738 
6231 4886 3842
6232 692  9347
6233 9477 8369
6234 7465 3651
6235 4571 7283
6236 3182 6981
6237 1911 9922
6238 7650 7362
6239 4922 7476
6240 2063 8255
6241 3970 8046
6242 41   7001
6243 9125 5470
6244 4797 7358
6245 9181 2090
6246 9825 2479
6247 820  9256
6248 8158 68  
6249 6394 9197
6250 7851 620 
6251 9352 7884
6252 5620 1958
6253 3737 3125
6254 6407 8648
6255 7540 4561
6256 374  9947
6257 3508 7103
6258 1385 5084
6259 1147 4781
6260 9664 3088
6261 7176 1681
6262 4635 5279
6263 9417 1912
6264 7384 1280
6265 2686 3905
6266 7343 6071
6267 2971 2971
6268 2505 1341
6269 612  8289
6270 9150 7532
6271 224  6774
6272 2995 1874
6273 847  9055
6274 8441 7673
6275 329  5681
6276 5850 1834
6277 6327 4763
6278 5300 9223
6279 6680 8610
6280 165  3040
6281 7548 5179
6282 1101 8854
6283 6826 3592
6284 215  5194
6285 7031 5148
6286 4223 8051
6287 3392 998 
6288 6343 2783
6289 7015 5468
6290 5195 8367
6291 8862 6184
6292 2452 3806
6293 6860 6693
6294 2331 4616
6295 1874 1684
6296 7764 667 
6297 961  1145
6298 8820 8024
6299 1481 7818
6300 8498 9185
6301 8115 5384
6302 3292 9500
6303 1637 9434
6304 6126 2659
6305 4642 7408
6306 7871 5373
6307 3019 8158
6308 5647 4831
6309 662  7591
6310 7237 4993
6311 2291 4585
6312 8533 565 
6313 5645 9870
6314 6007 9824
6315 6068 4841
6316 3999 4226
6317 3316 2089
6318 1836 8393
6319 4954 3027
6320 6439 289 
6321 1145 4184
6322 8666 7772
6323 222  2859
6324 2090 1038
6325 9016 1866
6326 6121 1882
6327 6569 5280
6328 3127 221 
6329 2342 5055
6330 1271 7394
6331 8306 7441
6332 9619 9775
6333 9640 787 
6334 3816 7218
6335 3479 6956
6336 2822 2545
6337 9951 2410
6338 7889 2580
6339 7112 2292
6340 1371 6064
6341 5516 6411
6342 3958 8486
6343 5946 1240
6344 8583 7150
6345 6104 3304
6346 1457 7401
6347 1014 2235
6348 7225 6981
6349 4754 1181
6350 3702 6504
6351 4904 9095
6352 3826 8297
6353 7028 1970
6354 9077 1952
6355 4587 9186
6356 2509 1959
6357 8468 2550
6358 8609 4036
6359 4894 5238
6360 1878 4423
6361 4173 914 
6362 1208 8717
6363 4307 9751
6364 2990 2516
6365 7414 3770
6366 2622 279 
6367 2443 6487
6368 2919 7664
6369 8208 2809
6370 7000 8693
6371 7800 3433
6372 7614 6092
6373 9295 11  
6374 7768 5187
6375 3714 1945
6376 6370 9678
6377 5375 6891
6378 4215 7763
6379 5904 6596
6380 6369 9042
6381 5808 7800
6382 2763 3207
6383 8754 1357
6384 7952 2783
6385 4943 5788
6386 3954 8838
6387 5308 1998
6388 7438 981 
6389 4388 3765
6390 2052 7551
6391 8690 3550
6392 659  4585
6393 5592 7920
6394 3675 6892
6395 9729 6117
6396 3291 7400
6397 6369 875 
6398 7961 8054
6399 7994 1787
6400 2118 7083
6401 5897 9353
6402 9147 5802
6403 6754 3001
6404 6949 9500
6405 4631 9234
6406 882  8623
6407 8730 1993
6408 9447 7609
6409 9921 4581
6410 3670 7622
6411 2708 6386
6412 5404 8076
6413 5607 2199
6414 9065 6234
6415 7070 7831
6416 8437 6916
6417 1609 843 
6418 4213 4138
6419 198  1274
6420 3602 704 
6421 7484 9419
6422 6090 2961
6423 288  3886
6424 9174 3153
6425 1935 1263
6426 3477 3149
6427 1834 1218
6428 2878 7654
6429 5519 7953
6430 6602 5000
6431 6441 2093
6432 9385 315 
6433 6942 2486
6434 3852 7966
6435 765  9869
6436 1837 2314
6437 605  4347
6438 6152 8333
6439 7910 4518
6440 8121 7576
6441 4207 6861
6442 9477 3530
6443 4670 5310
6444 262  4169
6445 6909 8572
6446 5121 8886
6447 3917 6371
6448 8457 4061
6449 6837 9162
6450 5700 5992
6451 4866 8919
6452 3561 4740
6453 8467 2546
6454 1260 6735
6455 2891 9064
6456 770  2656
6457 5922 4588
6458 2656 5418
6459 4533 9648
6460 3696 7667
6461 1843 4638
6462 1946 594 
6463 719  9047
6464 9756 4375
6465 7694 9746
6466 3237 2579
6467 7329 7881
6468 1364 82  
6469 8223 1384
6470 982  4433
6471 2492 9910
6472 5026 7053
6473 1192 7942
6474 2892 5846
6475 7716 3228
6476 6966 3539
6477 6728 2601
6478 2944 6603
6479 8919 6165
6480 3862 3658
6481 7125 9159
6482 2956 7968
6483 8277 8865
6484 1666 8   
6485 2302 4741
6486 6543 825 
6487 1295 7865
6488 4477 2529
6489 478  3998
6490 5427 9984
6491 2526 8996
6492 2206 6386
6493 8664 4415
6494 470  438 
6495 182  8987
6496 92   7248
6497 1641 99  
6498 1436 9686
6499 4692 4042
6500 7436 8753
6501 6122 6985
6502 3751 9338
6503 1027 1399
6504 7443 6727
6505 1375 303 
6506 8472 9186
6507 5632 4778
6508 9525 2616
6509 7114 9041
6510 2836 5493
6511 3639 9372
6512 9812 4639
6513 2946 2772
6514 8266 1006
6515 8168 6449
6516 8274 2669
6517 5835 6436
6518 4787 2094
6519 9219 8797
6520 2999 6310
6521 8597 1880
6522 7027 1327
6523 8595 7744
6524 6270 1019
6525 5345 5218
6526 2072 5136
6527 2129 2005
6528 7507 1963
6529 4525 9879
6530 276  2201
6531 1435 8207
6532 4817 8515
6533 3497 9374
6534 215  2821
6535 5889 6455
6536 2468 6884
6537 7878 4704
6538 421  6863
6539 6230 9374
6540 9849 2570
6541 4946 4246
6542 5786 8251
6543 1239 1643
6544 854  3023
6545 3431 6644
6546 1467 1537
6547 2104 8494
6548 8578 3138
6549 561  5882
6550 3456 6270
6551 7119 9359
6552 3012 9994
6553 175  2204
6554 8473 9248
6555 976  7509
6556 3501 6568
6557 6698 1794
6558 5372 3871
6559 2845 1276
6560 8650 594 
6561 6524 2708
6562 5601 8969
6563 8678 2648
6564 3597 5107
6565 6921 946 
6566 8719 2194
6567 7243 1319
6568 3392 4372
6569 7924 5188
6570 2206 4623
6571 1615 9286
6572 234  8564
6573 9157 1152
6574 5855 3491
6575 5121 2868
6576 3424 1782
6577 328  139 
6578 6163 5376
6579 3134 7640
6580 3816 6051
6581 3956 7660
6582 9335 8437
6583 3277 1545
6584 8923 4002
6585 3460 7539
6586 3724 2803
6587 3561 7703
6588 7345 3074
6589 3633 630 
6590 272  2451
6591 8893 6640
6592 7929 6065
6593 4049 4446
6594 5223 6098
6595 6145 9362
6596 6092 4400
6597 4473 6613
6598 4910 1256
6599 7809 7745
6600 4446 7661
6601 6528 470 
6602 7097 1067
6603 7560 6572
6604 8912 5684
6605 610  7025
6606 2978 2938
6607 8758 8661
6608 5473 4949
6609 3603 358 
6610 195  5664
6611 3460 1677
6612 616  7142
6613 1277 7520
6614 9545 3646
6615 7035 1643
6616 4030 7929
6617 8574 1906
6618 7802 9535
6619 5996 4734
6620 1359 6629
6621 9943 3780
6622 6828 9575
6623 39   3493
6624 7416 1303
6625 3971 1636
6626 5104 8893
6627 4636 4339
6628 9773 5516
6629 6193 2728
6630 2713 952 
6631 6416 3837
6632 2680 820 
6633 4486 2532
6634 4347 7829
6635 3367 3995
6636 572  7223
6637 4929 8433
6638 7448 4046
6639 4051 6754
6640 950  4988
6641 8496 216 
6642 8002 5188
6643 2590 5435
6644 3360 2358
6645 1445 3719
6646 9115 2381
6647 2169 8675
6648 6531 8389
6649 1942 2708
6650 9541 9513
6651 4273 4310
6652 7552 7881
6653 4216 2037
6654 2305 3736
6655 7526 1863
6656 9797 5585
6657 185  2158
6658 5580 1898
6659 6727 8468
6660 8259 4719
6661 7960 2940
6662 9272 9222
6663 2962 8612
6664 4645 6093
6665 8304 8023
6666 9737 7243
6667 8305 2618
6668 7548 2956
6669 336  6631
6670 414  6787
6671 9852 3773
6672 6338 5557
6673 6275 6359
6674 2597 9837
6675 8987 7942
6676 8546 5558
6677 9189 4955
6678 1798 3049
6679 7109 5386
6680 8757 4776
6681 1596 3616
6682 1499 8959
6683 5201 4016
6684 813  3914
6685 3483 9504
6686 2973 56  
6687 1451 4953
6688 7720 9871
6689 7138 3280
6690 8696 5512
6691 149  8598
6692 6977 111 
6693 110  6444
6694 152  4856
6695 4400 8505
6696 2189 4862
6697 2418 8312
6698 5282 9310
6699 7351 3650
6700 6961 4671
6701 7398 8916
6702 2058 8866
6703 7777 2978
6704 3990 9474
6705 7789 99  
6706 900  4133
6707 2678 8081
6708 7343 5407
6709 2008 9475
6710 3715 764 
6711 8742 996 
6712 109  1943
6713 5367 5482
6714 1130 6694
6715 422  7519
6716 9354 4345
6717 8980 6176
6718 6150 3369
6719 1566 6543
6720 2095 3539
6721 231  4610
6722 9453 9356
6723 5472 6362
6724 7981 7539
6725 449  6934
6726 8471 3031
6727 5646 6683
6728 7325 5623
6729 608  3748
6730 7341 5110
6731 1115 2263
6732 2253 2734
6733 6388 7167
6734 5763 8944
6735 2721 769 
6736 3595 2183
6737 8321 7769
6738 2051 2814
6739 6504 6865
6740 5587 32  
6741 4372 2902
6742 6517 641 
6743 3182 5465
6744 4987 8464
6745 2177 7077
6746 9306 7665
6747 825  554 
6748 6899 8829
6749 4276 693 
6750 9130 1514
6751 8984 6427
6752 7295 1708
6753 303  1259
6754 7445 901 
6755 5473 5863
6756 3388 5703
6757 7602 2164
6758 7467 8166
6759 2019 5976
6760 9364 9817
6761 8934 5419
6762 8820 258 
6763 359  4184
6764 5503 6321
6765 8083 1644
6766 6816 6248
6767 4428 4822
6768 7464 3652
6769 3913 9712
6770 199  3109
6771 7509 2093
6772 1378 849 
6773 5130 4712
6774 7133 7582
6775 3157 5399
6776 8906 1196
6777 1444 8571
6778 9881 1804
6779 6928 9792
6780 2553 5870
6781 2395 1664
6782 7550 8908
6783 7083 4773
6784 3834 3804
6785 2202 7391
6786 8404 3100
6787 7379 7403
6788 1510 8816
6789 5939 2066
6790 2789 7946
6791 9389 7224
6792 6373 43  
6793 165  8647
6794 8574 9858
6795 248  568 
6796 1260 8606
6797 959  4096
6798 9231 7725
6799 2752 2336
6800 7601 3936
6801 9281 8264
6802 1288 5318
6803 9673 5048
6804 2243 2146
6805 6178 2890
6806 7859 9913
6807 9237 849 
6808 2615 4103
6809 237  3969
6810 3524 4071
6811 7100 7915
6812 522  7184
6813 2691 510 
6814 5831 7354
6815 1033 3976
6816 5104 3087
6817 4606 2693
6818 58   9456
6819 1964 2729
6820 9225 3398
6821 3359 4114
6822 1679 4515
6823 5661 5332
6824 8874 3087
6825 1480 1757
6826 7398 3119
6827 7016 8693
6828 4697 27  
6829 7246 3738
6830 4367 1605
6831 4105 6022
6832 2995 6909
6833 8645 5875
6834 6466 7971
6835 1484 1930
6836 1775 9297
6837 8003 1359
6838 3693 4673
6839 4296 1469
6840 5374 4287
6841 5930 5473
6842 9711 1938
6843 329  5583
6844 5976 6511
6845 7592 6703
6846 2365 2502
6847 8567 4869
6848 6688 5497
6849 9367 3324
6850 3672 5413
6851 7004 7830
6852 4778 6094
6853 3947 2841
6854 6311 7357
6855 5448 4857
6856 8932 3443
6857 6769 32  
6858 8873 3926
6859 1741 1448
6860 4854 3586
6861 9359 567 
6862 6671 8693
6863 2931 5816
6864 2390 1319
6865 9631 9048
6866 8132 2529
6867 3042 8817
6868 7854 3830
6869 4873 6714
6870 2306 1712
6871 5890 3837
6872 4109 7833
6873 6614 4913
6874 7513 4500
6875 5688 2860
6876 4356 9789
6877 9719 936 
6878 2384 6677
6879 3396 6038
6880 8350 5197
6881 6746 4306
6882 4066 8733
6883 238  7679
6884 1466 7808
6885 1612 7558
6886 6050 5123
6887 2270 5296
6888 3356 5211
6889 9333 7468
6890 4925 4998
6891 8663 3984
6892 740  5455
6893 3405 1498
6894 6667 9500
6895 8078 5901
6896 8977 7188
6897 1867 7841
6898 2423 9280
6899 1146 9361
6900 7580 8716
6901 5755 105 
6902 4822 8064
6903 8019 4968
6904 6010 5070
6905 1061 2156
6906 8636 4942
6907 5103 4841
6908 1770 1910
6909 5961 3219
6910 776  7695
6911 4334 1821
6912 3927 1596
6913 6610 7077
6914 5545 5992
6915 9084 2754
6916 6900 2310
6917 3252 4147
6918 1207 9103
6919 2921 877 
6920 3895 6076
6921 7456 2122
6922 9074 7966
6923 7012 3006
6924 6384 4615
6925 6054 8391
6926 6234 4861
6927 3145 6344
6928 3046 817 
6929 3847 4923
6930 9758 8562
6931 794  9683
6932 2365 122 
6933 5636 8041
6934 6687 7598
6935 4187 7271
6936 9562 9566
6937 8700 9933
6938 7618 3022
6939 2373 177 
6940 4496 4694
6941 8001 5333
6942 8225 7096
6943 9917 7069
6944 5575 9243
6945 8000 2751
6946 2081 1012
6947 2723 4941
6948 5962 1479
6949 1964 506 
6950 5856 8947
6951 1722 2024
6952 6522 4264
6953 8528 7136
6954 530  3878
6955 5377 4892
6956 7754 8826
6957 4760 3863
6958 6251 1138
6959 8590 1597
6960 6248 928 
6961 2490 1954
6962 1025 6409
6963 8511 702 
6964 5467 3322
6965 514  6973
6966 4727 3990
6967 8022 1168
6968 2431 8891
6969 2639 5370
6970 3984 2135
6971 977  2384
6972 2209 9365
6973 5622 3927
6974 7805 4671
6975 3962 7186
6976 8933 2654
6977 5532 4478
6978 5328 8388
6979 2329 6495
6980 8828 3356
6981 8    5952
6982 5559 3508
6983 6838 2588
6984 7491 3598
6985 8131 4345
6986 6854 1638
6987 2861 990 
6988 7213 7915
6989 7252 1580
6990 351  2149
6991 7865 6611
6992 8938 7257
6993 665  7809
6994 7175 8896
6995 4919 1201
6996 4518 9919
6997 287  8879
6998 4918 4815
6999 6998 2689
7000 4443 2621
7001 3537 8495
7002 7176 6592
7003 5734 1568
7004 9654 9017
7005 159  1446
7006 5735 5818
7007 9858 4479
7008 1633 4539
7009 7609 3942
7010 4442 8840
7011 3053 3080
7012 5347 5722
7013 4035 9585
7014 5159 2871
7015 1470 333 
7016 6182 4426
7017 3886 5697
7018 4076 9412
7019 4995 1619
7020 9412 6453
7021 6610 1045
7022 1751 3058
7023 2977 5269
7024 2971 9614
7025 9518 1054
7026 4615 9668
7027 5954 5091
7028 4072 8039
7029 3315 9030
7030 1338 8407
7031 561  7458
7032 2052 5814
7033 1840 455 
7034 6179 5654
7035 3825 5440
7036 9579 4829
7037 7436 9399
7038 3081 9369
7039 594  3587
7040 7545 5617
7041 7811 6988
7042 2885 6891
7043 9846 6424
7044 845  109 
7045 3032 16  
7046 7975 7486
7047 8391 1169
7048 1012 6320
7049 7654 659 
7050 7747 5868
7051 4903 4603
7052 1077 6723
7053 3443 1056
7054 4617 6515
7055 7890 9901
7056 111  5623
7057 5503 5936
7058 1454 1825
7059 6353 5091
7060 9918 824 
7061 2846 4909
7062 3887 8081
7063 6345 3872
7064 4167 7226
7065 5587 558 
7066 205  1332
7067 6441 1510
7068 4711 4503
7069 8394 9862
7070 3617 1073
7071 6012 3425
7072 6393 8355
7073 800  2333
7074 7709 9532
7075 3988 227 
7076 7611 9561
7077 6251 6145
7078 2271 121 
7079 6812 4653
7080 5210 4559
7081 1256 4098
7082 257  9261
7083 348  2069
7084 7325 4378
7085 7475 6926
7086 4614 7732
7087 6649 3988
7088 10000 3665
7089 4208 5233
7090 3447 8435
7091 2592 3712
7092 3630 5854
7093 9564 5245
7094 7894 8433
7095 8218 6460
7096 2331 2885
7097 2365 537 
7098 7678 4600
7099 2840 7677
7100 6575 8706
7101 3744 5254
7102 4951 7733
7103 7098 2835
7104 597  6707
7105 8331 6704
7106 9910 5221
7107 4060 7278
7108 619  9678
7109 2852 8629
7110 1074 4139
7111 22   2142
7112 6480 4913
7113 3686 416 
7114 1537 4325
7115 4337 974 
7116 5333 9331
7117 5984 4220
7118 5263 633 
7119 8368 7144
7120 257  6065
7121 5504 4171
7122 7190 7570
7123 6712 9964
7124 4764 5804
7125 6465 151 
7126 1193 386 
7127 2741 8799
7128 3315 2566
7129 1016 3802
7130 9020 84  
7131 3665 7127
7132 5836 4444
7133 216  1321
7134 6931 957 
7135 7826 2222
7136 7952 9041
7137 2508 8410
7138 530  7621
7139 3632 4925
7140 2076 8229
7141 7811 3737
7142 2125 5667
7143 519  5613
7144 764  2822
7145 5869 8128
7146 6009 2684
7147 9585 5484
7148 2921 9375
7149 7634 6879
7150 9658 6310
7151 4541 2117
7152 6790 2568
7153 3241 4265
7154 2216 7227
7155 5925 5520
7156 5173 5723
7157 687  9694
7158 9785 4903
7159 9540 5708
7160 3234 9123
7161 3435 3329
7162 6410 4890
7163 745  709 
7164 7722 1220
7165 605  4905
7166 6003 1041
7167 3704 2469
7168 683  4416
7169 1259 5208
7170 5979 1209
7171 1147 1164
7172 8786 2846
7173 863  8831
7174 7997 2833
7175 2603 3403
7176 9300 4863
7177 2368 5784
7178 2445 2607
7179 3406 7974
7180 548  9024
7181 3734 7128
7182 6284 4620
7183 5546 8995
7184 2264 9748
7185 806  6281
7186 1047 8426
7187 7834 631 
7188 7446 1605
7189 5898 120 
7190 9541 2874
7191 7735 5689
7192 7501 1099
7193 67   9241
7194 5483 6597
7195 7296 1305
7196 2244 278 
7197 7024 5901
7198 8086 9854
7199 6491 2240
7200 4914 3555
7201 1755 9554
7202 1710 7527
7203 3435 8590
7204 3242 5984
7205 7477 2381
7206 8062 141 
7207 9796 7776
7208 7286 5667
7209 4418 3132
7210 8806 1340
7211 4740 813 
7212 4682 9795
7213 7025 7880
7214 7353 773 
7215 147  9914
7216 676  6043
7217 6973 6347
7218 554  2063
7219 8133 7603
7220 8325 281 
7221 2069 5322
7222 5983 7298
7223 7682 1848
7224 8251 3741
7225 5306 1720
7226 5882 8890
7227 7548 8746
7228 6596 1104
7229 8939 7264
7230 2929 7384
7231 1180 6560
7232 6976 9321
7233 5644 8380
7234 1970 5738
7235 2607 6060
7236 4136 1216
7237 1542 9795
7238 2913 8616
7239 5593 1198
7240 4306 316 
7241 2396 8161
7242 7045 6998
7243 6920 7013
7244 9782 757 
7245 1810 4930
7246 8010 3864
7247 5218 9229
7248 2701 5682
7249 3001 8099
7250 7509 9999
7251 9796 4435
7252 7111 2096
7253 91   4068
7254 8236 1940
7255 3418 1422
7256 2954 8580
7257 1857 3692
7258 7553 2839
7259 5308 2659
7260 6512 3232
7261 3776 7056
7262 4342 3069
7263 6270 5255
7264 1023 5674
7265 4325 2930
7266 7734 1127
7267 6455 9415
7268 4982 155 
7269 2460 4407
7270 7545 7168
7271 1747 7265
7272 8688 2253
7273 5805 6497
7274 3407 6134
7275 8208 3620
7276 693  3361
7277 3732 6978
7278 1992 4564
7279 1727 2904
7280 5983 6932
7281 8954 9168
7282 2242 5636
7283 5932 2723
7284 6022 2853
7285 3137 1061
7286 161  806 
7287 6770 181 
7288 1545 3367
7289 4352 3552
7290 1919 3186
7291 4417 2042
7292 9589 1441
7293 8544 1265
7294 58   3064
7295 1790 8545
7296 7153 5226
7297 9253 9292
7298 5884 9879
7299 5433 3820
7300 190  6161
7301 9054 5221
7302 3536 8903
7303 4434 7617
7304 6113 4863
7305 2410 2626
7306 994  9011
7307 8146 6597
7308 2873 6171
7309 4395 3762
7310 4519 6646
7311 6962 6901
7312 4654 4203
7313 6762 2238
7314 9545 4809
7315 9309 5132
7316 7373 4467
7317 441  5251
7318 6722 6460
7319 7544 1947
7320 8698 7934
7321 1645 947 
7322 7378 8447
7323 7984 7662
7324 4219 7580
7325 9542 560 
7326 7604 1040
7327 7640 6173
7328 1205 7286
7329 4033 3534
7330 8927 4209
7331 3031 1460
7332 4988 5268
7333 9121 7965
7334 1333 1587
7335 4424 9848
7336 3215 1119
7337 194  6858
7338 9    8074
7339 1754 127 
7340 4617 9400
7341 3760 7148
7342 3857 9971
7343 7963 6939
7344 5648 2762
7345 9232 1469
7346 286  534 
7347 9403 1104
7348 1888 8721
7349 8672 1662
7350 4080 1070
7351 2357 239 
7352 1592 313 
7353 7313 9050
7354 3325 3599
7355 2005 3719
7356 9126 6002
7357 8892 9865
7358 9959 690 
7359 1013 1406
7360 8103 7897
7361 9886 9427
7362 1499 5448
7363 5272 8864
7364 465  142 
7365 8814 1867
7366 2714 635 
7367 2759 4768
7368 1804 8557
7369 9714 4516
7370 7154 8100
7371 3125 5476
7372 8029 5370
7373 7114 9954
7374 8679 588 
7375 9700 2042
7376 8342 612 
7377 2838 3666
7378 4461 8904
7379 8345 3145
7380 4495 1748
7381 5917 250 
7382 5968 9695
7383 949  3138
7384 4158 5320
7385 8138 8373
7386 5453 7914
7387 1325 6304
7388 5688 6888
7389 3658 2983
7390 4165 7086
7391 8584 19  
7392 2525 9381
7393 5463 1479
7394 844  5857
7395 9520 3069
7396 369  6252
7397 2024 7910
7398 1625 7413
7399 8253 2407
7400 9487 7415
7401 4011 3836
7402 5161 7929
7403 9518 2213
7404 8321 1548
7405 1979 5199
7406 2822 2122
7407 4966 5940
7408 7191 3597
7409 9062 2760
7410 269  5084
7411 2960 533 
7412 7339 6437
7413 2556 1117
7414 6005 2199
7415 4207 1747
7416 3100 4775
7417 1711 4613
7418 2106 2739
7419 1521 530 
7420 9351 1007
7421 8060 8355
7422 8639 7669
7423 9016 9266
7424 4647 5068
7425 3964 2312
7426 5260 4965
7427 3394 5645
7428 2695 4400
7429 205  8971
7430 9610 9823
7431 8004 6410
7432 3464 9910
7433 4436 5023
7434 3427 9482
7435 3597 165 
7436 5832 1989
7437 9209 5840
7438 7658 1886
7439 5515 753 
7440 216  6364
7441 1342 7280
7442 9438 5560
7443 22   181 
7444 882  3412
7445 4131 1819
7446 6817 4863
7447 8077 1100
7448 8878 1215
7449 3745 6935
7450 5956 1103
7451 5352 1355
7452 368  8962
7453 3683 2683
7454 5436 5075
7455 7036 275 
7456 6330 800 
7457 9191 8653
7458 4404 6899
7459 1311 1610
7460 7164 574 
7461 8487 780 
7462 156  8552
7463 3134 2198
7464 5263 7997
7465 7484 908 
7466 7152 9778
7467 164  3902
7468 8724 4295
7469 2598 2722
7470 5299 5750
7471 2136 2924
7472 4042 5053
7473 6423 5509
7474 8629 4790
7475 5042 8445
7476 5728 3007
7477 3185 8108
7478 2445 9225
7479 2057 3150
7480 7007 9842
7481 8465 3786
7482 7937 4813
7483 6951 7622
7484 9685 8599
7485 9838 4896
7486 9501 2552
7487 9596 5787
7488 5838 1666
7489 8917 973 
7490 1264 3782
7491 2255 7469
7492 2570 1671
7493 1508 8718
7494 5166 1134
7495 3711 1923
7496 3267 2882
7497 3103 6045
7498 6029 2509
7499 8081 1518
7500 7054 3518
7501 8578 1202
7502 5263 5859
7503 6732 2111
7504 2797 4669
7505 2881 3082
7506 2653 1306
7507 5678 1366
7508 5465 5239
7509 2285 9704
7510 960  6752
7511 4669 729 
7512 691  4584
7513 1495 6480
7514 8614 6566
7515 5682 4829
7516 3201 512 
7517 7110 4655
7518 9866 7151
7519 7064 3459
7520 9381 9716
7521 4570 4644
7522 1712 1711
7523 5715 5920
7524 6464 4707
7525 3725 3882
7526 3642 6479
7527 6552 397 
7528 665  5602
7529 8949 3949
7530 3576 4530
7531 2495 5956
7532 32   345 
7533 8936 9446
7534 8401 1840
7535 5726 8513
7536 515  562 
7537 5222 6839
7538 2392 4162
7539 7723 1390
7540 5593 5174
7541 4973 6656
7542 6133 2003
7543 6272 7388
7544 7702 8941
7545 2686 5123
7546 3535 4736
7547 727  6615
7548 1389 5146
7549 7407 6215
7550 9785 9021
7551 4115 9714
7552 9382 4018
7553 1698 1437
7554 8645 8206
7555 9782 5618
7556 8487 6301
7557 3137 9109
7558 9005 4108
7559 5754 482 
7560 2925 8095
7561 7574 9728
7562 8600 8543
7563 7613 7398
7564 3350 1389
7565 6617 876 
7566 4931 4659
7567 7959 6939
7568 6330 1082
7569 1749 5051
7570 3791 2783
7571 2341 6489
7572 523  85  
7573 1113 789 
7574 617  2726
7575 506  7547
7576 2131 9075
7577 1763 8767
7578 6583 7462
7579 6215 9992
7580 761  6205
7581 8352 1114
7582 5797 6645
7583 4540 7949
7584 270  163 
7585 8915 3178
7586 3158 1788
7587 6133 8628
7588 5468 6244
7589 6875 4571
7590 8736 9850
7591 7710 6549
7592 8013 9146
7593 7003 9523
7594 8265 2365
7595 6528 8933
7596 8454 2225
7597 1068 8196
7598 5654 3431
7599 2467 2798
7600 389  2991
7601 2067 8268
7602 2513 5433
7603 2438 9765
7604 6965 5614
7605 8713 3798
7606 1661 1665
7607 1759 7900
7608 1566 4012
7609 3348 6838
7610 5123 7574
7611 3028 6113
7612 2117 6041
7613 9442 9325
7614 5369 7707
7615 4546 6757
7616 4448 3784
7617 7500 7798
7618 3514 4436
7619 1406 893 
7620 8931 7477
7621 9071 4593
7622 4868 3081
7623 7855 9375
7624 9326 6534
7625 9511 4132
7626 3961 1908
7627 2787 81  
7628 1875 52  
7629 2834 7671
7630 736  7640
7631 235  7939
7632 3677 2773
7633 1589 2755
7634 8932 9206
7635 108  1014
7636 195  318 
7637 3935 5014
7638 7609 8590
7639 7534 3668
7640 8598 4834
7641 5537 7779
7642 1921 9125
7643 5958 8493
7644 5147 7612
7645 1826 423 
7646 1974 9268
7647 7577 0   
7648 6129 7276
7649 5664 356 
7650 7693 9796
7651 6629 6738
7652 808  8937
7653 9916 2874
7654 2630 529 
7655 2703 1308
7656 1114 6701
7657 9415 7478
7658 6316 3522
7659 9545 3137
7660 547  7169
7661 2291 5538
7662 5640 1331
7663 3154 3090
7664 560  7289
7665 3068 9690
7666 9660 4679
7667 2274 5794
7668 2005 7559
7669 2604 591 
7670 3911 1164
7671 4247 2632
7672 9346 7394
7673 8698 4592
7674 3721 9390
7675 2091 578 
7676 976  9271
7677 2201 5735
7678 2441 7088
7679 3866 1233
7680 4302 6935
7681 2863 17  
7682 3904 4732
7683 9438 2741
7684 9885 2026
7685 2957 125 
7686 5262 4469
7687 2545 6893
7688 6524 7001
7689 6553 6492
7690 8932 2124
7691 9614 1826
7692 7999 4444
7693 5299 7881
7694 8008 7606
7695 1151 1914
7696 4401 7807
7697 7197 1142
7698 6296 6932
7699 7840 9307
7700 6544 8892
7701 5398 3073
7702 2396 492 
7703 8044 6409
7704 7469 5995
7705 318  6892
7706 5101 8045
7707 1945 9523
7708 5832 1216
7709 2041 3361
7710 9136 1400
7711 666  7430
7712 4123 7453
7713 3765 5752
7714 686  1788
7715 6708 1879
7716 543  3741
7717 1088 6522
7718 2851 8107
7719 5481 6758
7720 7112 2627
7721 2907 8206
7722 4591 451 
7723 6926 5379
7724 6171 8796
7725 9550 1162
7726 941  7288
7727 3578 8124
7728 9208 3417
7729 2055 3935
7730 983  4826
7731 5876 402 
7732 7249 1933
7733 7515 5526
7734 3484 432 
7735 1126 8540
7736 8422 1621
7737 3506 7591
7738 4229 128 
7739 2382 6549
7740 377  6282
7741 2374 8552
7742 8731 4590
7743 370  5304
7744 3306 5904
7745 852  5825
7746 4254 4040
7747 5972 7834
7748 4604 9823
7749 3780 5711
7750 7704 5723
7751 4628 2420
7752 1315 5845
7753 9251 4712
7754 2144 1680
7755 3587 8673
7756 2330 6947
7757 9597 160 
7758 8550 793 
7759 7319 1624
7760 8073 8857
7761 4517 2942
7762 3420 9599
7763 2948 7443
7764 2112 6150
7765 407  2234
7766 4394 1178
7767 1432 6807
7768 9916 1306
7769 9793 2837
7770 3765 3161
7771 4671 4390
7772 2157 4737
7773 699  4017
7774 9062 1137
7775 3481 727 
7776 666  7008
7777 594  8091
7778 50   9981
7779 6660 4649
7780 8816 6953
7781 8138 4857
7782 9655 1788
7783 8653 4452
7784 8045 7611
7785 7942 3715
7786 5324 8703
7787 2043 890 
7788 1910 4630
7789 5067 9289
7790 9245 1966
7791 5614 4753
7792 453  901 
7793 9088 6735
7794 1403 9138
7795 6172 9743
7796 2049 7004
7797 6654 2564
7798 8471 8821
7799 9361 8473
7800 3401 5330
7801 852  3311
7802 1766 9359
7803 3013 5251
7804 5937 5990
7805 4259 3188
7806 7800 8472
7807 8575 4574
7808 2587 7328
7809 1754 3736
7810 5977 8938
7811 597  3726
7812 2962 8871
7813 6641 3427
7814 1259 8198
7815 1607 2182
7816 8490 1734
7817 7651 9099
7818 6631 2841
7819 7620 6271
7820 3553 7947
7821 6758 1159
7822 4671 6988
7823 63   759 
7824 121  7614
7825 2404 307 
7826 5475 5695
7827 2865 1196
7828 2862 9737
7829 5430 4628
7830 5764 5916
7831 5983 2984
7832 9054 8437
7833 5756 8591
7834 8793 3616
7835 6605 5971
7836 6323 2127
7837 9246 9105
7838 1246 4095
7839 7532 2448
7840 6658 2011
7841 6935 5380
7842 9845 93  
7843 7085 7548
7844 5869 1340
7845 9609 6520
7846 2620 2841
7847 5538 7217
7848 5869 8684
7849 8086 311 
7850 5060 3145
7851 700  6484
7852 7021 4993
7853 5314 7007
7854 6716 5696
7855 6413 9524
7856 6710 127 
7857 5721 7644
7858 674  4154
7859 1587 6867
7860 8886 1403
7861 2165 8329
7862 6353 5430
7863 7396 9491
7864 9919 3364
7865 8576 9797
7866 863  9368
7867 153  2548
7868 3914 509 
7869 1311 3261
7870 396  6336
7871 5540 9135
7872 4774 9465
7873 7828 8646
7874 5546 3649
7875 2670 2496
7876 3312 6194
7877 65   3738
7878 8760 6202
7879 8634 479 
7880 2193 2070
7881 3853 6889
7882 2965 9841
7883 6735 4506
7884 4537 7837
7885 454  3719
7886 2111 1704
7887 4256 1327
7888 7358 7875
7889 3921 8640
7890 8534 1263
7891 9018 9471
7892 2124 6161
7893 2234 4304
7894 6271 7392
7895 7982 7016
7896 3200 4833
7897 9702 833 
7898 2737 1099
7899 1459 1188
7900 1241 3675
7901 8398 7947
7902 6757 8799
7903 1564 8829
7904 9026 6305
7905 4760 6884
7906 4449 4645
7907 6737 4814
7908 3750 8873
7909 2182 1225
7910 7784 8119
7911 5334 6596
7912 621  4988
7913 2795 245 
7914 6598 5039
7915 3078 9861
7916 5270 6200
7917 5193 3233
7918 3642 7004
7919 2724 5718
7920 9074 233 
7921 7267 3133
7922 3043 8893
7923 4922 4401
7924 8706 4187
7925 5033 2209
7926 8533 7516
7927 6582 1978
7928 235  949 
7929 1130 2582
7930 7329 5055
7931 6626 4666
7932 1486 2684
7933 7251 6899
7934 601  9236
7935 8636 9248
7936 3260 524 
7937 3686 6606
7938 2278 1479
7939 7536 3359
7940 3364 7955
7941 1931 6016
7942 6785 8979
7943 8301 9543
7944 2312 775 
7945 2388 5093
7946 4166 4806
7947 2070 1520
7948 1186 630 
7949 7846 2189
7950 8975 1129
7951 959  3198
7952 6432 508 
7953 4825 6596
7954 609  6916
7955 1000 5620
7956 9571 3593
7957 1953 1609
7958 6897 9452
7959 6067 4301
7960 5953 8637
7961 5621 8743
7962 9880 3541
7963 6616 9608
7964 6650 9684
7965 1349 6768
7966 4112 8803
7967 1668 8890
7968 9074 9999
7969 130  9727
7970 630  719 
7971 9532 2518
7972 6629 4601
7973 9651 4244
7974 1367 1887
7975 9838 1029
7976 7222 8250
7977 7749 113 
7978 4813 6537
7979 4173 1079
7980 7681 9283
7981 5232 2378
7982 9349 3277
7983 4125 6861
7984 1898 2679
7985 3268 8735
7986 1625 233 
7987 9107 2251
7988 2747 9390
7989 3081 8322
7990 4132 4719
7991 6223 1319
7992 1778 6388
7993 3842 3185
7994 5333 6990
7995 5947 1018
7996 9496 8143
7997 5153 7237
7998 5530 5482
7999 9860 2975
8000 2406 8881
8001 6584 1297
8002 3727 6248
8003 2976 5210
8004 4931 4947
8005 2289 7867
8006 8573 1584
8007 2043 1089
8008 8028 3614
8009 7318 4364
8010 4987 240 
8011 5435 5735
8012 9591 9873
8013 392  7649
8014 7526 9537
8015 6498 1182
8016 4744 8895
8017 8662 9555
8018 9531 113 
8019 2274 1718
8020 647  2929
8021 7929 8770
8022 7347 9875
8023 5370 7521
8024 3051 6978
8025 2403 4956
8026 3238 2221
8027 8462 6818
8028 5127 9071
8029 1094 3868
8030 4852 7006
8031 129  7883
8032 7851 9670
8033 5587 7186
8034 7934 1870
8035 4699 6383
8036 3479 564 
8037 6455 8038
8038 4251 5026
8039 8564 1041
8040 6833 1573
8041 1780 8919
8042 5828 6822
8043 6405 7084
8044 1335 622 
8045 7889 6361
8046 1889 5556
8047 9825 6015
8048 7415 9342
8049 499  5459
8050 2564 8997
8051 2116 4274
8052 2564 1749
8053 4854 746 
8054 1433 316 
8055 633  1546
8056 3698 1014
8057 507  4692
8058 1188 8805
8059 2538 3110
8060 9822 5142
8061 3006 465 
8062 2009 8961
8063 2050 5321
8064 5754 585 
8065 2244 1531
8066 6938 3743
8067 5155 7794
8068 9958 9303
8069 9716 9096
8070 3183 5604
8071 520  8731
8072 9748 9819
8073 3613 9927
8074 2623 2554
8075 7420 6056
8076 7009 175 
8077 3263 5206
8078 8278 1163
8079 3153 6427
8080 7937 7073
8081 7472 8485
8082 966  1786
8083 1779 7029
8084 6156 1972
8085 3278 4848
8086 3129 8997
8087 3809 1358
8088 8943 6   
8089 3405 7143
8090 2676 5349
8091 3897 9666
8092 3198 8275
8093 5008 7751
8094 4535 7281
8095 7792 405 
8096 2103 5703
8097 6928 5349
8098 6077 247 
8099 9400 3852
8100 2219 6380
8101 3394 3184
8102 22   8852
8103 3852 3694
8104 200  6059
8105 8748 7751
8106 5244 9174
8107 1127 4295
8108 2882 739 
8109 9651 6605
8110 3996 2668
8111 1275 6793
8112 9369 7197
8113 5088 4821
8114 5854 8864
8115 622  6725
8116 4936 7040
8117 7387 3948
8118 2270 7711
8119 3003 9349
8120 2182 8986
8121 3386 1593
8122 2853 3588
8123 6876 1450
8124 5002 2611
8125 6425 4729
8126 7585 4561
8127 9377 7503
8128 5591 4800
8129 8303 4104
8130 1532 1102
8131 7300 1983
8132 1746 1300
8133 6962 5335
8134 4960 820 
8135 4870 97  
8136 3376 4628
8137 4912 5358
8138 6960 3891
8139 503  8397
8140 4312 2366
8141 4379 4428
8142 4711 2507
8143 5517 6753
8144 5026 3164
8145 4706 5321
8146 2229 6683
8147 4207 6720
8148 5774 1423
8149 471  9446
8150 8138 6589
8151 143  9541
8152 2599 4130
8153 4158 5082
8154 4353 9449
8155 4983 4890
8156 9429 4551
8157 2457 2743
8158 7135 6342
8159 9619 1979
8160 9375 3942
8161 5524 6205
8162 905  5701
8163 2296 3542
8164 5263 8629
8165 5037 1658
8166 5254 1401
8167 6026 8577
8168 9939 7643
8169 921  8891
8170 214  5960
8171 8660 5235
8172 2723 6806
8173 8780 2139
8174 8200 9260
8175 6822 5780
8176 9468 5696
8177 1135 4590
8178 126  8181
8179 5148 6120
8180 5780 4956
8181 5034 1751
8182 9199 1550
8183 2906 6841
8184 2861 3115
8185 4405 7513
8186 3099 2235
8187 9465 7313
8188 4525 6809
8189 215  8797
8190 3749 2349
8191 5156 9454
8192 9919 1803
8193 9310 8381
8194 437  2246
8195 9083 5396
8196 7540 2147
8197 8698 7930
8198 3011 7627
8199 5443 3998
8200 8178 7305
8201 7297 8295
8202 3745 4706
8203 1900 8802
8204 6041 1050
8205 6722 940 
8206 7640 3287
8207 4921 4137
8208 8970 5442
8209 6616 9076
8210 1230 2833
8211 7407 6004
8212 4143 7381
8213 9641 3428
8214 8596 4622
8215 9064 4707
8216 8864 146 
8217 2790 5625
8218 566  4575
8219 7066 1266
8220 4040 7577
8221 9705 551 
8222 3135 2219
8223 538  4859
8224 8499 102 
8225 2948 7731
8226 5952 3951
8227 1493 2085
8228 5691 2903
8229 6140 4895
8230 5101 7682
8231 9179 2766
8232 4346 7962
8233 1521 9738
8234 1710 6201
8235 3834 8028
8236 127  2102
8237 7222 4903
8238 8930 7279
8239 8408 3638
8240 658  1150
8241 4909 7979
8242 3546 3422
8243 1037 2020
8244 9454 4153
8245 3544 9338
8246 7432 3889
8247 9940 5562
8248 1784 5544
8249 8395 4868
8250 6452 8054
8251 3792 2308
8252 7158 9804
8253 4894 5968
8254 9047 7396
8255 8983 9279
8256 281  8703
8257 4003 6400
8258 1234 7259
8259 4630 4818
8260 1470 1651
8261 1136 3437
8262 2316 7008
8263 3980 6623
8264 7005 5314
8265 178  6908
8266 787  214 
8267 5023 2391
8268 6030 1898
8269 5735 4472
8270 285  4213
8271 2250 3381
8272 6196 398 
8273 721  8453
8274 3513 6955
8275 5120 9804
8276 8691 6337
8277 8786 3075
8278 6010 7066
8279 7459 3105
8280 28   8329
8281 12   8600
8282 312  1933
8283 9616 7160
8284 4757 6727
8285 5579 6349
8286 9838 2492
8287 4173 9196
8288 7470 6131
8289 3342 626 
8290 8194 3755
8291 7933 7519
8292 6756 8525
8293 6627 1990
8294 2182 2897
8295 3937 6772
8296 585  3822
8297 4255 2929
8298 5354 1842
8299 6580 8202
8300 2964 4327
8301 7706 4362
8302 1850 8272
8303 2817 8544
8304 186  4934
8305 5320 6437
8306 9771 4452
8307 5617 585 
8308 8748 9728
8309 5368 1585
8310 2717 675 
8311 4050 9098
8312 2225 3269
8313 2393 4415
8314 2340 5906
8315 4522 4742
8316 7820 5823
8317 266  2132
8318 5146 4103
8319 7467 6154
8320 2227 8594
8321 3117 8963
8322 5592 582 
8323 9406 8642
8324 789  765 
8325 628  7378
8326 6170 4498
8327 3002 6091
8328 6846 819 
8329 5849 2152
8330 8581 1666
8331 5451 7148
8332 2026 1521
8333 7487 7145
8334 7929 2034
8335 5823 8179
8336 232  1205
8337 7440 8896
8338 1525 9200
8339 7262 1598
8340 7606 6423
8341 9748 5464
8342 3681 8869
8343 9446 6516
8344 4035 5087
8345 216  6304
8346 7239 4355
8347 810  7793
8348 7733 3329
8349 6795 703 
8350 5556 1950
8351 1704 7870
8352 1602 5464
8353 8925 6404
8354 9855 6142
8355 1712 1260
8356 9074 8269
8357 895  6918
8358 9139 2394
8359 3178 5581
8360 5663 3600
8361 7381 5220
8362 7769 547 
8363 4290 5678
8364 1949 5831
8365 6383 1109
8366 2159 3350
8367 5812 3703
8368 499  8450
8369 7064 1175
8370 8566 2410
8371 3672 1268
8372 5169 8670
8373 5671 3338
8374 5128 6279
8375 9228 4802
8376 5829 4582
8377 496  4470
8378 1244 258 
8379 1064 1960
8380 341  5293
8381 377  637 
8382 7039 2020
8383 7270 5441
8384 9379 7403
8385 5388 7177
8386 9133 9432
8387 731  2936
8388 9606 9589
8389 4684 9546
8390 4918 4222
8391 650  2917
8392 3961 6512
8393 8903 7264
8394 8436 8728
8395 4286 4596
8396 3422 1833
8397 6146 8974
8398 8449 9996
8399 3377 221 
8400 4807 8216
8401 6850 4939
8402 8466 2282
8403 3937 7221
8404 1645 7074
8405 3481 4384
8406 4394 2874
8407 7736 5053
8408 8562 9900
8409 2423 10  
8410 4528 7395
8411 7753 4086
8412 6144 3184
8413 9203 4012
8414 3901 6233
8415 8476 3768
8416 354  4477
8417 973  8366
8418 5988 6386
8419 107  4258
8420 5437 6484
8421 5391 3489
8422 1135 2242
8423 1423 404 
8424 2527 7653
8425 4207 2239
8426 6572 8456
8427 6081 5557
8428 3235 7530
8429 6332 1399
8430 9824 8519
8431 8722 890 
8432 1083 4054
8433 1294 2769
8434 2269 1564
8435 2894 6161
8436 8913 2378
8437 5753 9050
8438 500  3240
8439 8983 9694
8440 474  4846
8441 2371 2605
8442 6474 4973
8443 7869 2818
8444 4734 6718
8445 5719 1656
8446 6974 5126
8447 8740 1326
8448 6423 8930
8449 5141 4131
8450 3525 449 
8451 8097 321 
8452 6987 7891
8453 9035 5792
8454 7244 5989
8455 3812 1366
8456 2031 9479
8457 923  5730
8458 8342 9535
8459 9934 4232
8460 3347 8158
8461 7102 463 
8462 5904 8708
8463 9225 9416
8464 2022 4379
8465 3281 8795
8466 1789 6793
8467 6770 7525
8468 8193 402 
8469 1714 4874
8470 4768 1568
8471 4589 7299
8472 6166 8858
8473 8452 6171
8474 9025 2855
8475 46   7970
8476 2578 1943
8477 907  2091
8478 2772 2261
8479 4035 631 
8480 4880 3272
8481 196  4462
8482 1400 9849
8483 6887 3845
8484 7412 8301
8485 6951 1812
8486 6436 7750
8487 3529 9300
8488 4425 8321
8489 8988 8571
8490 2207 3808
8491 5978 82  
8492 2087 1038
8493 9568 6592
8494 5007 692 
8495 7147 5055
8496 4018 5691
8497 3750 4034
8498 1958 9266
8499 922  4347
8500 5975 3305
8501 9868 4818
8502 4243 6517
8503 4158 966 
8504 930  6896
8505 8394 3838
8506 284  6069
8507 3431 1363
8508 7434 5563
8509 9761 9116
8510 2066 2069
8511 1792 9378
8512 3518 8065
8513 7430 842 
8514 7945 5835
8515 91   3139
8516 8064 3611
8517 9983 1190
8518 4447 9320
8519 8222 3393
8520 997  9333
8521 2055 6102
8522 9409 2622
8523 9319 2071
8524 3132 7909
8525 7599 404 
8526 2875 1401
8527 4090 7772
8528 7956 7755
8529 2837 6756
8530 9113 9953
8531 5110 5994
8532 4073 9326
8533 4911 6364
8534 5284 9849
8535 5352 4977
8536 2052 2050
8537 5314 2129
8538 1522 5089
8539 6165 1774
8540 3756 3759
8541 1614 7513
8542 2809 7553
8543 884  3089
8544 5806 1137
8545 5819 8967
8546 4630 6578
8547 423  5757
8548 9709 9514
8549 5110 3533
8550 3725 5796
8551 7506 3485
8552 6398 9651
8553 8338 2712
8554 3587 244 
8555 9155 1419
8556 358  8665
8557 5118 5905
8558 9448 5522
8559 127  89  
8560 6991 4132
8561 4885 5131
8562 717  3391
8563 9908 1710
8564 5110 5241
8565 1888 8815
8566 9198 7838
8567 5552 1663
8568 7299 4467
8569 2257 7417
8570 3549 3587
8571 3888 9806
8572 1236 5711
8573 6979 6254
8574 3451 5646
8575 5282 4210
8576 2960 3586
8577 6525 3265
8578 4508 1467
8579 393  9253
8580 7922 6420
8581 268  9589
8582 675  4918
8583 1443 1737
8584 987  305 
8585 664  9495
8586 1529 9237
8587 9695 2110
8588 5514 5248
8589 2142 5042
8590 9868 2972
8591 9832 7171
8592 159  9286
8593 5371 7224
8594 3270 767 
8595 8616 8586
8596 6374 3907
8597 7644 6587
8598 2854 6522
8599 3484 8934
8600 1461 2095
8601 8897 3364
8602 2117 5454
8603 4524 709 
8604 2425 1   
8605 7771 8418
8606 9745 3375
8607 8271 9463
8608 9012 5795
8609 5810 3086
8610 1394 6780
8611 503  5339
8612 2452 6298
8613 9346 6537
8614 3204 4517
8615 9355 6934
8616 2061 358 
8617 9049 3776
8618 5133 8360
8619 6831 9330
8620 7094 159 
8621 701  9243
8622 4255 4228
8623 5863 842 
8624 5983 3841
8625 2528 289 
8626 7727 2907
8627 645  356 
8628 8010 6178
8629 9411 7469
8630 2771 5456
8631 1033 7459
8632 7993 6081
8633 8143 9732
8634 2707 564 
8635 5294 9276
8636 3489 2198
8637 9166 8516
8638 4319 3180
8639 7700 8380
8640 4556 7294
8641 3205 8135
8642 3124 6780
8643 3343 5778
8644 2381 7272
8645 1477 3611
8646 1237 8308
8647 6024 7992
8648 5147 664 
8649 5964 5849
8650 632  7436
8651 1731 4314
8652 3404 5455
8653 5008 1449
8654 8312 9370
8655 3433 4647
8656 6797 6830
8657 2665 6186
8658 7116 3447
8659 6345 108 
8660 6537 2670
8661 7572 7106
8662 2880 6931
8663 9265 9186
8664 7596 1168
8665 2205 6073
8666 7542 2159
8667 7800 9974
8668 9453 9375
8669 2008 3986
8670 8306 2043
8671 3504 4077
8672 4192 3808
8673 2874 7901
8674 7659 3201
8675 7653 3734
8676 2640 6054
8677 8692 9656
8678 7879 993 
8679 4974 2610
8680 435  485 
8681 3090 9510
8682 6315 204 
8683 880  6727
8684 9655 7507
8685 8326 4100
8686 1485 3630
8687 7746 1269
8688 3228 6600
8689 4422 2851
8690 4237 5638
8691 8149 4036
8692 1247 6260
8693 7198 7620
8694 6496 9761
8695 2021 4990
8696 401  1408
8697 8052 8287
8698 9230 7032
8699 4870 5374
8700 9421 9757
8701 8968 637 
8702 9988 5270
8703 4865 9757
8704 7342 3976
8705 7028 5754
8706 6692 3433
8707 6323 2502
8708 3935 9060
8709 3574 4497
8710 9417 9704
8711 1598 1245
8712 5427 1059
8713 5793 7241
8714 8408 4161
8715 8188 536 
8716 7391 7499
8717 5748 5452
8718 6455 3711
8719 1512 8864
8720 7464 6951
8721 6544 2638
8722 4619 9199
8723 908  6376
8724 6194 3767
8725 4056 6513
8726 1246 3760
8727 2645 7915
8728 7089 8656
8729 6178 346 
8730 1302 2658
8731 742  1387
8732 4509 1827
8733 2373 8354
8734 3160 8159
8735 3016 31  
8736 6102 9459
8737 8068 7898
8738 139  3194
8739 3601 8471
8740 3902 4313
8741 1257 9049
8742 7101 1691
8743 1978 8906
8744 4241 4304
8745 4900 3828
8746 8009 5723
8747 8003 9430
8748 9073 7787
8749 6739 2980
8750 3655 1074
8751 8452 8697
8752 659  2711
8753 5032 955 
8754 7514 121 
8755 3334 101 
8756 1322 8392
8757 4832 5141
8758 7366 8478
8759 5603 9499
8760 379  2371
8761 178  3882
8762 1409 9589
8763 2286 8586
8764 9847 2390
8765 5811 4433
8766 9112 1146
8767 9566 9157
8768 4214 8006
8769 8285 5148
8770 5184 634 
8771 4534 3693
8772 4161 6359
8773 3841 531 
8774 5546 468 
8775 9189 1366
8776 5606 1708
8777 3057 718 
8778 1211 195 
8779 6239 5083
8780 8722 7910
8781 5271 6394
8782 1404 839 
8783 6802 578 
8784 8492 7340
8785 7998 6487
8786 4576 9286
8787 2133 1170
8788 5562 8114
8789 7817 7771
8790 5149 221 
8791 9692 9712
8792 7816 1878
8793 6827 6966
8794 6133 2021
8795 9716 2124
8796 153  4121
8797 1802 2164
8798 2103 9156
8799 241  8233
8800 8499 3802
8801 4772 5351
8802 5354 7844
8803 1332 5973
8804 2446 2107
8805 4019 4834
8806 6139 8041
8807 9746 8983
8808 3794 2486
8809 8183 8101
8810 3725 5368
8811 1713 6944
8812 8108 6087
8813 6155 4308
8814 6559 6135
8815 3089 6295
8816 7997 4185
8817 2050 9445
8818 5740 2666
8819 2112 2278
8820 8067 767 
8821 4694 9000
8822 1178 2407
8823 7301 9846
8824 98   5968
8825 5043 2716
8826 6271 7404
8827 4199 7923
8828 224  5130
8829 2532 2032
8830 16   4278
8831 1218 1517
8832 5313 3708
8833 9770 576 
8834 6630 2692
8835 975  6196
8836 1802 4688
8837 5325 5370
8838 180  107 
8839 5182 5270
8840 4558 1164
8841 1254 2029
8842 1778 2111
8843 7058 6175
8844 7286 7713
8845 2410 25  
8846 4694 4974
8847 8224 3692
8848 3110 2132
8849 4725 1887
8850 1634 2609
8851 5308 9887
8852 9110 7833
8853 1283 8598
8854 7918 5901
8855 7154 282 
8856 5220 985 
8857 5573 9404
8858 1536 1596
8859 1524 3312
8860 8376 5224
8861 2318 3065
8862 9190 2442
8863 3311 3072
8864 8558 2080
8865 689  524 
8866 3659 8382
8867 6149 199 
8868 5767 9880
8869 6464 7327
8870 7396 2418
8871 648  9386
8872 7894 5409
8873 974  7967
8874 200  8171
8875 158  1481
8876 6296 4538
8877 4562 945 
8878 1322 2456
8879 3696 9536
8880 3237 2043
8881 7823 8516
8882 8279 1499
8883 6587 3394
8884 8986 6983
8885 5130 5122
8886 5552 6128
8887 6869 5248
8888 6196 5845
8889 605  1450
8890 1245 6561
8891 630  3079
8892 38   4496
8893 1488 6353
8894 1862 4883
8895 187  3438
8896 1535 8374
8897 7120 3680
8898 1260 2801
8899 1792 5961
8900 6757 4929
8901 5765 9064
8902 1366 1849
8903 2876 6481
8904 7685 8112
8905 1998 30  
8906 6112 5236
8907 5397 3164
8908 9554 8814
8909 3598 3372
8910 6023 1872
8911 4946 7454
8912 5033 5113
8913 9756 1638
8914 6129 3951
8915 5344 6292
8916 3829 8694
8917 5923 9320
8918 7515 1168
8919 1669 9474
8920 164  6526
8921 6615 9596
8922 3153 2976
8923 3195 5657
8924 7490 4537
8925 4405 8877
8926 5485 7307
8927 814  3327
8928 9247 1925
8929 3303 2375
8930 6170 6441
8931 8111 8138
8932 5637 6899
8933 6873 5947
8934 7281 6806
8935 6382 5246
8936 4787 7632
8937 2114 4981
8938 8612 8304
8939 6821 6429
8940 5761 3118
8941 1711 1618
8942 7251 6332
8943 6247 6112
8944 9734 3837
8945 3867 2286
8946 5972 8610
8947 1774 5759
8948 4887 7984
8949 4897 8727
8950 824  3824
8951 1642 5080
8952 5298 1456
8953 9248 4025
8954 3007 3854
8955 8718 4402
8956 6298 7926
8957 2578 9191
8958 3366 8418
8959 4868 89  
8960 5993 996 
8961 5039 6980
8962 2463 7388
8963 8898 1353
8964 8431 7299
8965 9510 4632
8966 9377 1693
8967 1742 6236
8968 4401 774 
8969 2922 71  
8970 4000 4654
8971 8303 7210
8972 5131 9559
8973 6929 9923
8974 3276 8744
8975 698  6703
8976 9346 9427
8977 9082 5399
8978 7423 5907
8979 2004 1377
8980 92   3190
8981 1391 1117
8982 9692 2770
8983 6652 4900
8984 1514 3536
8985 6461 9017
8986 4780 7330
8987 1195 4036
8988 6774 8315
8989 8933 6188
8990 9254 63  
8991 2656 1554
8992 6104 8378
8993 5158 9659
8994 5417 5940
8995 1553 5301
8996 9172 3975
8997 6920 4051
8998 1973 3999
8999 1711 9234
9000 9721 9763
9001 4107 5488
9002 3868 2098
9003 8343 5503
9004 7451 5266
9005 9949 7062
9006 2004 7561
9007 3479 7864
9008 7450 2105
9009 4232 6582
9010 8943 6371
9011 5399 4436
9012 3038 6955
9013 1102 1836
9014 6172 4272
9015 339  1329
9016 2668 2483
9017 4206 4367
9018 8577 9085
9019 2212 3584
9020 128  1561
9021 5065 3858
9022 3357 1177
9023 745  1409
9024 5913 4901
9025 6991 4352
9026 1253 8182
9027 4820 1783
9028 1643 1086
9029 2368 6222
9030 6763 1091
9031 3561 2429
9032 3482 9061
9033 2981 7727
9034 2332 2433
9035 6457 5371
9036 1094 8346
9037 4667 2813
9038 7164 6821
9039 4626 3234
9040 6236 1692
9041 2208 2726
9042 909  252 
9043 2392 5591
9044 5895 1237
9045 2404 5044
9046 4113 2948
9047 7445 3481
9048 1704 7278
9049 9573 2776
9050 567  4847
9051 1260 9693
9052 5292 9834
9053 9395 5372
9054 6797 3588
9055 1995 1116
9056 5209 5708
9057 497  5845
9058 3994 7857
9059 7384 1898
9060 5161 6298
9061 1392 9471
9062 47   5977
9063 3371 9544
9064 6250 204 
9065 8724 4499
9066 2841 3263
9067 6687 113 
9068 2294 6559
9069 7471 6549
9070 6843 8883
9071 5162 5339
9072 792  3094
9073 6013 6639
9074 7976 4484
9075 2311 5263
9076 1852 8400
9077 4545 9808
9078 5748 8928
9079 2746 5157
9080 177  3904
9081 8135 3366
9082 2702 2855
9083 4900 5201
9084 6217 4249
9085 7545 6014
9086 7076 3430
9087 9151 5810
9088 2950 5279
9089 4667 8812
9090 2706 3920
9091 1898 8246
9092 3112 8815
9093 8906 3593
9094 5455 219 
9095 3356 669 
9096 4721 8856
9097 2861 4370
9098 8769 5869
9099 3553 1070
9100 6315 1176
9101 8128 5890
9102 7935 9921
9103 6137 4267
9104 288  5141
9105 7220 768 
9106 3480 7810
9107 851  7658
9108 4475 9826
9109 5511 4422
9110 8535 97  
9111 4088 7265
9112 1929 1669
9113 1952 8343
9114 4025 6289
9115 4501 8860
9116 5942 8303
9117 9892 9603
9118 8779 2709
9119 3458 8687
9120 9517 5535
9121 6991 4826
9122 4473 413 
9123 5337 2736
9124 2730 4497
9125 6325 1728
9126 8924 3133
9127 2443 72  
9128 2453 4855
9129 386  4404
9130 878  8379
9131 988  3456
9132 2049 5245
9133 2034 4719
9134 1359 9266
9135 5834 8602
9136 2551 4961
9137 1155 7882
9138 4908 5222
9139 5660 244 
9140 3544 4940
9141 3992 3777
9142 8287 2527
9143 4463 8990
9144 1601 9957
9145 586  5691
9146 1016 204 
9147 1078 1500
9148 7237 3453
9149 5342 6136
9150 2827 9003
9151 2033 6109
9152 2441 9171
9153 104  9455
9154 3484 4837
9155 6329 5022
9156 6534 5888
9157 3147 3285
9158 3705 7715
9159 8386 6192
9160 8875 4581
9161 9299 5430
9162 4264 3473
9163 8524 4508
9164 9406 1030
9165 3017 5338
9166 7984 9584
9167 7613 9426
9168 8813 890 
9169 2992 591 
9170 3766 1387
9171 1116 1740
9172 6593 1205
9173 7014 6695
9174 1687 9749
9175 2528 6858
9176 8916 6468
9177 6377 2483
9178 847  9786
9179 530  5290
9180 5307 4472
9181 6361 1459
9182 7393 1928
9183 1545 371 
9184 3674 911 
9185 3135 2948
9186 441  5836
9187 1920 1640
9188 5888 7265
9189 693  9241
9190 4501 5371
9191 2377 1451
9192 3124 3813
9193 222  8644
9194 1112 8768
9195 1006 8926
9196 9137 4843
9197 428  5495
9198 6149 5751
9199 7154 3550
9200 1301 4079
9201 2055 3545
9202 2054 2520
9203 6026 535 
9204 5669 6049
9205 84   559 
9206 7648 3483
9207 126  3433
9208 1839 7233
9209 7126 722 
9210 8464 3699
9211 501  999 
9212 1594 6925
9213 9188 5981
9214 580  4774
9215 1668 4207
9216 6280 5738
9217 1232 5084
9218 6830 8442
9219 9554 2698
9220 378  2392
9221 7988 5054
9222 6801 8356
9223 6266 9750
9224 9253 530 
9225 604  520 
9226 4940 5714
9227 2328 675 
9228 3085 5300
9229 2876 324 
9230 1950 244 
9231 1141 6665
9232 1601 9031
9233 2353 5389
9234 3187 6526
9235 8261 2723
9236 6561 5314
9237 8304 9385
9238 9106 1518
9239 8963 3083
9240 912  2240
9241 9144 4664
9242 3415 5964
9243 1195 7823
9244 6998 5204
9245 5769 7168
9246 5587 2086
9247 7590 4171
9248 443  3648
9249 2687 6482
9250 3290 9152
9251 555  6903
9252 7021 6524
9253 6035 8867
9254 8560 8911
9255 5650 3265
9256 4945 7232
9257 5197 1722
9258 4633 7174
9259 7210 5455
9260 1661 7954
9261 313  3879
9262 7338 7226
9263 4617 8243
9264 8225 7829
9265 9906 1721
9266 1681 7104
9267 6359 6594
9268 508  245 
9269 7834 8555
9270 1526 6250
9271 3935 5150
9272 4163 3985
9273 6093 8608
9274 9711 985 
9275 5246 1655
9276 1237 9224
9277 5206 5390
9278 9060 8076
9279 9990 2317
9280 4059 4552
9281 7827 1610
9282 5980 5675
9283 4459 7173
9284 919  5896
9285 5038 678 
9286 3759 6987
9287 86   5446
9288 2764 2589
9289 8596 4025
9290 848  996 
9291 2772 9557
9292 1796 2129
9293 4413 5589
9294 8762 5532
9295 255  9112
9296 7260 6784
9297 2663 9949
9298 4877 2538
9299 1834 107 
9300 5852 9802
9301 5292 9701
9302 7061 6847
9303 1952 5577
9304 9761 2272
9305 5475 4868
9306 6819 1604
9307 8836 225 
9308 9389 3467
9309 9154 9609
9310 5845 6943
9311 1651 5923
9312 635  1945
9313 4607 2523
9314 5597 1592
9315 7319 7815
9316 1739 358 
9317 8741 6987
9318 3984 8868
9319 7688 1670
9320 5087 4639
9321 2517 7054
9322 6982 9185
9323 843  1955
9324 2073 8908
9325 8913 1208
9326 2592 4028
9327 6631 8948
9328 1701 6660
9329 8441 7755
9330 216  2492
9331 5834 7385
9332 4867 5429
9333 4628 7091
9334 8443 4542
9335 5886 8620
9336 2954 6508
9337 3111 8242
9338 6132 6400
9339 1965 7398
9340 6745 9978
9341 8158 9790
9342 6650 1287
9343 824  4885
9344 3020 4246
9345 4033 140 
9346 2133 9757
9347 5935 2916
9348 766  1348
9349 7153 4218
9350 5173 5434
9351 8479 1107
9352 1854 296 
9353 8766 9328
9354 4598 7231
9355 9988 9739
9356 4407 5118
9357 4986 1860
9358 4255 2019
9359 2114 7579
9360 8709 5341
9361 1852 7435
9362 6290 2114
9363 6633 8642
9364 6229 6902
9365 2972 567 
9366 7531 6140
9367 7767 873 
9368 9030 663 
9369 2930 9980
9370 907  6832
9371 1475 6038
9372 2281 3055
9373 3954 5572
9374 835  6290
9375 9059 242 
9376 1259 7834
9377 3149 5835
9378 82   66  
9379 4468 5122
9380 253  2399
9381 6563 4350
9382 8373 8740
9383 9598 6628
9384 1636 3009
9385 6182 5619
9386 6556 512 
9387 2847 2531
9388 6352 5102
9389 8938 8118
9390 5869 9850
9391 4038 3647
9392 536  3716
9393 3802 2879
9394 6171 5863
9395 5836 6111
9396 6901 159 
9397 7349 4063
9398 3842 9143
9399 2732 3621
9400 4152 5172
9401 8666 3023
9402 4284 7944
9403 2573 2353
9404 8836 3308
9405 2280 818 
9406 3234 1337
9407 6156 4874
9408 844  244 
9409 744  2388
9410 8234 2132
9411 698  1553
9412 3574 3036
9413 4157 3781
9414 8214 6325
9415 7963 7543
9416 564  122 
9417 2945 8483
9418 1585 992 
9419 3012 6737
9420 892  5571
9421 5912 7886
9422 3756 991 
9423 6656 9214
9424 4367 8568
9425 4398 7603
9426 7081 4323
9427 9078 9705
9428 3974 3660
9429 1163 4409
9430 9487 5388
9431 4304 8508
9432 7651 2195
9433 149  8299
9434 9822 4739
9435 8470 346 
9436 6920 5468
9437 5609 3084
9438 6099 9640
9439 6693 4458
9440 5181 6720
9441 5535 2417
9442 5781 6794
9443 8293 9824
9444 7799 4859
9445 6264 8020
9446 9032 5709
9447 2591 6212
9448 2963 260 
9449 8371 8219
9450 9230 3597
9451 8646 8064
9452 5476 7258
9453 634  2745
9454 4835 616 
9455 1851 6923
9456 959  9089
9457 3846 6086
9458 802  3638
9459 1925 2394
9460 7844 438 
9461 3692 6269
9462 5148 4805
9463 1920 7611
9464 917  7420
9465 4900 537 
9466 7067 5803
9467 6694 6381
9468 7124 2895
9469 4310 5214
9470 3820 8147
9471 3221 6143
9472 6613 9040
9473 4541 2062
9474 3857 7364
9475 3466 9444
9476 7774 6179
9477 5636 4082
9478 5973 2307
9479 2206 2730
9480 7644 5010
9481 8284 4447
9482 8289 1459
9483 7082 283 
9484 3808 240 
9485 3373 5480
9486 1016 3168
9487 6692 1118
9488 6821 702 
9489 4563 7259
9490 1871 9068
9491 7103 6205
9492 6891 1259
9493 7961 415 
9494 5017 4690
9495 8523 9023
9496 3305 2169
9497 5307 6999
9498 4886 9108
9499 3875 2922
9500 664  6571
9501 5745 1179
9502 8095 2686
9503 3953 9746
9504 4676 2265
9505 3965 2200
9506 4919 8058
9507 3795 3489
9508 7937 6678
9509 1750 8790
9510 5988 687 
9511 4809 998 
9512 7499 6987
9513 5395 3888
9514 7522 3624
9515 3516 5404
9516 186  963 
9517 6124 4197
9518 7728 6486
9519 6686 1331
9520 5669 4127
9521 9756 1827
9522 1568 630 
9523 1483 2889
9524 2143 7468
9525 2035 6284
9526 6009 4833
9527 6790 2766
9528 6038 2541
9529 7799 7074
9530 6102 9641
9531 1998 8751
9532 9825 6439
9533 607  8958
9534 2204 1606
9535 301  6763
9536 7615 427 
9537 2171 9402
9538 1810 9571
9539 8977 8327
9540 1084 381 
9541 7677 894 
9542 4764 9040
9543 9140 8116
9544 5195 2697
9545 3189 4547
9546 6094 763 
9547 835  1289
9548 2554 8235
9549 3541 5991
9550 8343 3672
9551 2667 2758
9552 4586 1640
9553 5376 9749
9554 4708 2739
9555 3457 9005
9556 4114 3483
9557 4586 3535
9558 128  2800
9559 611  7780
9560 5839 9570
9561 7513 4900
9562 3120 5282
9563 677  2989
9564 3310 1702
9565 7189 7454
9566 6129 3415
9567 9645 9386
9568 4340 3472
9569 3996 5558
9570 9668 9178
9571 4768 4431
9572 4533 6088
9573 8845 4923
9574 6820 9037
9575 4170 6382
9576 4421 9050
9577 2391 972 
9578 3623 5512
9579 3817 5902
9580 4715 692 
9581 5037 2974
9582 2055 1974
9583 6306 5883
9584 7251 5439
9585 3429 1254
9586 6177 9530
9587 2813 1281
9588 2357 543 
9589 2915 9680
9590 4448 7592
9591 1806 7420
9592 9735 6823
9593 275  8270
9594 6076 546 
9595 4571 7050
9596 4072 5660
9597 1893 8387
9598 8445 4189
9599 3227 1516
9600 2095 2566
9601 1751 6566
9602 8022 8545
9603 4969 4262
9604 8077 661 
9605 8755 7485
9606 1302 6244
9607 9697 905 
9608 3502 596 
9609 7459 3480
9610 1918 2880
9611 5460 259 
9612 7022 9197
9613 1257 1756
9614 4345 5755
9615 3512 3307
9616 1180 8261
9617 4367 6587
9618 4080 1286
9619 6984 3779
9620 2233 9336
9621 4698 8261
9622 9636 5974
9623 6967 6988
9624 8335 5870
9625 2211 1102
9626 8763 439 
9627 2026 2206
9628 3251 3708
9629 3677 1438
9630 9518 7480
9631 1315 107 
9632 3552 6757
9633 5617 560 
9634 5538 136 
9635 319  7269
9636 9539 9003
9637 3707 3597
9638 8471 628 
9639 3987 6831
9640 9513 9144
9641 703  2272
9642 5810 6048
9643 320  8512
9644 9018 4628
9645 396  9435
9646 2588 8080
9647 4370 4047
9648 8215 3912
9649 7606 533 
9650 1901 6466
9651 2706 8261
9652 9743 4458
9653 5186 5199
9654 991  9684
9655 4866 3229
9656 3239 4257
9657 4364 314 
9658 343  9870
9659 4573 6840
9660 5516 1386
9661 6282 6019
9662 1701 8029
9663 4295 4347
9664 8377 2093
9665 6497 1939
9666 9576 7976
9667 4147 4941
9668 8709 35  
9669 8978 5389
9670 5273 8292
9671 9443 4448
9672 7275 9276
9673 9934 4559
9674 5763 195 
9675 3591 7649
9676 5546 1337
9677 8471 5242
9678 4002 1723
9679 7197 225 
9680 9578 1102
9681 7372 9916
9682 7771 1633
9683 4922 9915
9684 121  2424
9685 7240 9312
9686 7335 9223
9687 3839 9142
9688 1039 807 
9689 7862 543 
9690 4261 5315
9691 2472 441 
9692 2808 8808
9693 9744 7848
9694 6022 3939
9695 3214 2394
9696 5265 4273
9697 6525 4390
9698 9645 8825
9699 7024 8670
9700 8975 4544
9701 5333 2558
9702 5568 3910
9703 9714 8169
9704 3645 5283
9705 5149 7663
9706 993  1428
9707 6208 5884
9708 1589 5813
9709 7516 1411
9710 5466 7399
9711 765  4241
9712 1605 575 
9713 2216 5153
9714 4752 2059
9715 7030 5657
9716 7194 8535
9717 686  9080
9718 1355 9751
9719 6576 911 
9720 6467 3034
9721 9588 2353
9722 5906 7884
9723 2348 5339
9724 9689 5298
9725 8415 3918
9726 1056 8107
9727 8908 8189
9728 3160 3764
9729 6805 2953
9730 427  6337
9731 6620 7712
9732 8290 5230
9733 502  3722
9734 6068 7278
9735 4796 4356
9736 5736 8023
9737 4211 37  
9738 1256 2600
9739 2811 4820
9740 5012 5827
9741 2953 200 
9742 4612 6193
9743 1895 9447
9744 7615 7354
9745 700  4994
9746 7919 1469
9747 1634 6328
9748 9800 3814
9749 4617 7174
9750 1397 498 
9751 3191 4953
9752 8357 5727
9753 6718 4962
9754 2391 5757
9755 1932 3654
9756 6607 5181
9757 3855 1789
9758 3258 1082
9759 2420 6805
9760 2066 3544
9761 3207 8786
9762 9367 7778
9763 4795 4209
9764 8573 1890
9765 2783 3294
9766 846  8307
9767 4341 8656
9768 7150 1181
9769 3875 4556
9770 7862 2006
9771 8437 4417
9772 8492 6790
9773 7546 9124
9774 474  7629
9775 4748 457 
9776 4418 688 
9777 3951 7799
9778 1156 1970
9779 9809 9536
9780 6676 8476
9781 8390 5303
9782 6417 6637
9783 6807 7787
9784 8022 8538
9785 2010 822 
9786 1498 3650
9787 7849 7229
9788 4504 6839
9789 8824 5960
9790 1574 7274
9791 7148 4900
9792 4684 4887
9793 575  3614
9794 8864 9403
9795 3785 2729
9796 8445 5889
9797 2941 7330
9798 8993 5798
9799 3928 6731
9800 4576 642 
9801 1479 9986
9802 1034 3108
9803 3144 7541
9804 5676 4933
9805 3701 6406
9806 713  9083
9807 4318 7477
9808 2551 2222
9809 2985 8785
9810 4320 6857
9811 5671 3415
9812 3916 53  
9813 3204 9642
9814 9208 3793
9815 4465 6493
9816 2983 4158
9817 6076 6267
9818 2497 6492
9819 8729 1814
9820 4544 5006
9821 1633 8400
9822 1015 2614
9823 1654 1135
9824 4618 7125
9825 7881 4977
9826 5591 2074
9827 5690 2449
9828 9349 5057
9829 6701 3648
9830 842  7679
9831 1086 1882
9832 6887 4673
9833 9727 6434
9834 110  1774
9835 3334 5484
9836 3673 2280
9837 4656 5710
9838 6742 1442
9839 380  1956
9840 6478 4793
9841 5226 2638
9842 7787 4626
9843 1218 391 
9844 4997 3115
9845 3151 227 
9846 5847 8845
9847 2072 8074
9848 2212 1483
9849 5335 8665
9850 3751 4500
9851 5497 5170
9852 8958 2612
9853 8649 6218
9854 4765 8556
9855 4277 4682
9856 8982 3004
9857 6310 1710
9858 8142 7356
9859 2996 5026
9860 579  1055
9861 9786 613 
9862 776  3377
9863 8409 6307
9864 5656 8469
9865 6697 729 
9866 4049 5231
9867 9958 2643
9868 8911 7629
9869 6063 6293
9870 2744 5573
9871 8197 1043
9872 4564 6374
9873 9084 8634
9874 3803 2710
9875 8895 8808
9876 7781 9595
9877 8840 4623
9878 6227 9992
9879 3455 9466
9880 8761 5475
9881 2179 3790
9882 7542 2210
9883 7834 7982
9884 6687 8658
9885 548  712 
9886 6471 3052
9887 5176 6172
9888 9676 2771
9889 8780 6635
9890 4602 5776
9891 5542 2254
9892 9321 9722
9893 8002 6994
9894 4155 9689
9895 7960 2871
9896 2637 650 
9897 4789 8981
9898 3221 7861
9899 8564 7669
9900 8853 5436
9901 6612 6667
9902 8408 7308
9903 2150 2742
9904 7044 1504
9905 6333 5427
9906 9470 4451
9907 803  6922
9908 7071 2277
9909 5869 6749
9910 1419 9200
9911 2992 7051
9912 4414 6670
9913 3644 8334
9914 865  1812
9915 9969 6031
9916 4802 1191
9917 5087 6774
9918 2304 2903
9919 7097 9170
9920 5396 1791
9921 2652 7895
9922 6236 1097
9923 4521 4758
9924 9447 7495
9925 3293 4238
9926 2649 2472
9927 1477 7351
9928 4883 1897
9929 1825 6092
9930 455  8058
9931 2857 5335
9932 547  6047
9933 6960 2523
9934 3169 9129
9935 9792 771 
9936 9682 2155
9937 8374 288 
9938 1205 1659
9939 2484 4085
9940 581  2942
9941 7868 2955
9942 7446 1617
9943 2909 8843
9944 2485 1406
9945 6780 1237
9946 9321 4400
9947 5112 7619
9948 8148 5139
9949 9264 1677
9950 1037 7829
9951 5288 6489
9952 6899 8357
9953 6590 1637
9954 139  5650
9955 2089 627 
9956 2133 9683
9957 5381 4685
9958 4071 9604
9959 9943 334 
9960 1908 3368
9961 6690 8900
9962 309  1780
9963 3032 5992
9964 6819 7912
9965 9013 8777
9966 9184 1040
9967 3782 8503
9968 5016 7469
9969 3740 7969
9970 6043 6818
9971 4710 9939
9972 6112 2906
9973 8868 4782
9974 7876 475 
9975 6518 1927
9976 5094 9819
9977 4003 2535
9978 3460 8095
9979 118  8436
9980 7421 339 
9981 4509 4467
9982 9251 969 
9983 8953 273 
9984 5028 680 
9985 6326 4399
9986 4592 1250
9987 4560 8545
9988 9086 7435
9989 3977 5246
9990 5733 8545
9991 8793 8374
9992 6645 8856
9993 554  3498
9994 4346 6499
9995 8157 7543
9996 2761 2910
9997 3370 6836
9998 429  2482
9999 5248 8900
10000 4459 9366
10001 8579 8009
10002 3449 4283
10003 3883 2191
10004 4119 7341
10005 5703 1350
10006 8142 6738
10007 5334 303 
10008 6006 4462
10009 602  7583
10010 2041 2420
10011 4744 2545
10012 6725 2829
10013 9125 6776
10014 7523 3324
10015 3435 3931
10016 9137 2982
10017 8026 5697
10018 3395 9056
10019 3724 9003
10020 5824 4670
10021 6894 9353
10022 2443 5548
10023 5641 1913
10024 7106 594 
10025 1487 5832
10026 574  6783
10027 946  223 
10028 4189 2447
10029 4686 7729
10030 687  20  
10031 7729 8010
10032 1344 8880
10033 3379 3180
10034 5397 9323
10035 6186 2786
10036 55   6227
10037 6749 1149
10038 3426 7753
10039 1111 6001
10040 2501 4230
10041 6926 1758
10042 7016 136 
10043 4014 8149
10044 141  8248
10045 1123 1953
10046 7201 5115
10047 2326 6492
10048 4987 8406
10049 1549 22  
10050 2478 6972
10051 8522 9266
10052 2548 8387
10053 7872 4332
10054 3264 7466
10055 2074 8832
10056 4807 440 
10057 1831 2244
10058 6625 230 
10059 2681 4526
10060 5983 2334
10061 735  1621
10062 954  652 
10063 3077 5801
10064 8898 4660
10065 351  7362
10066 1115 7412
10067 2609 2023
10068 2019 5111
10069 6354 3685
10070 4378 2609
10071 8925 2915
10072 3699 8756
10073 924  2821
10074 5528 3763
10075 1839 2997
10076 6952 1493
10077 3866 5334
10078 6308 6352
10079 2122 3512
10080 3517 1175
10081 5139 5068
10082 3606 131 
10083 5756 2751
10084 3032 9608
10085 7109 5482
10086 1858 7932
10087 6584 7010
10088 3137 7969
10089 1703 7860
10090 8653 6169
10091 6617 4678
10092 5680 4034
10093 7872 8485
10094 6398 6276
10095 8339 9107
10096 4601 8639
10097 9116 278 
10098 8833 2628
10099 5637 4718
10100 300  3409
10101 9414 5435
10102 7607 4356
10103 2808 9628
10104 4689 7552
10105 5809 5486
10106 7335 258 
10107 2087 2505
10108 2293 2077
10109 3964 8725
10110 914  7760
10111 6431 5312
10112 6643 5277
10113 1635 3656
10114 2882 4694
10115 7180 3697
10116 9810 8879
10117 2886 4682
10118 2535 5897
10119 6284 2996
10120 1916 7472
10121 5721 2130
10122 9362 9679
10123 2438 7457
10124 4016 8636
10125 715  8855
10126 3615 4446
10127 1910 4554
10128 2731 7786
10129 4772 9938
10130 1791 6997
10131 1923 6107
10132 8049 9289
10133 435  6963
10134 6547 3837
10135 5091 6804
10136 9646 9656
10137 7082 2529
10138 8763 3390
10139 4117 8749
10140 9974 7907
10141 1130 4479
10142 8924 5355
10143 2382 3365
10144 338  8558
10145 4852 9149
10146 8699 9808
10147 6206 6250
10148 4151 9703
10149 5069 2325
10150 4711 7968
10151 4252 445 
10152 9758 8649
10153 894  5751
10154 9325 1403
10155 6798 372 
10156 577  3616
10157 8511 7628
10158 3701 9605
10159 3446 4669
10160 7879 9578
10161 1050 9397
10162 9465 8115
10163 3616 6452
10164 2403 6206
10165 862  8196
10166 1466 9908
10167 5473 6927
10168 7315 3512
10169 4052 4873
10170 1594 817 
10171 5811 704 
10172 7078 2025
10173 2739 9097
10174 4810 203 
10175 1746 7291
10176 8324 9955
10177 1810 136 
10178 7133 5889
10179 2666 2967
10180 2300 7258
10181 3251 9428
10182 1246 32  
10183 170  3719
10184 5172 9109
10185 2603 9710
10186 6782 1287
10187 8108 9160
10188 4251 1488
10189 7649 869 
10190 9920 4319
10191 5341 8637
10192 9756 3485
10193 8549 583 
10194 4578 7744
10195 2978 4131
10196 809  4876
10197 4697 575 
10198 6121 4853
10199 4131 6322
10200 4215 8047
10201 3030 3942
10202 5056 7294
10203 7739 2452
10204 1445 7308
10205 2100 4254
10206 5892 1228
10207 4130 6489
10208 30   7980
10209 1441 5205
10210 6466 4105
10211 9397 9339
10212 4642 1376
10213 8966 3929
10214 2015 5304
10215 6715 6943
10216 7440 2445
10217 5608 9316
10218 3717 5994
10219 4868 7314
10220 5480 8648
10221 9213 6147
10222 3868 3160
10223 9976 774 
10224 8801 5907
10225 255  8052
10226 6628 6526
10227 377  9489
10228 2504 3756
10229 3738 4671
10230 1969 1081
10231 2699 2634
10232 9149 211 
10233 1675 2655
10234 9628 7639
10235 7110 4191
10236 929  3921
10237 5915 2285
10238 3888 182 
10239 5426 9641
10240 5462 4415
10241 9635 3333
10242 5922 678 
10243 6560 6682
10244 271  9058
10245 2811 2296
10246 2607 9770
10247 7181 9303
10248 2859 5259
10249 1886 9123
10250 1824 3975
10251 1805 8497
10252 4988 6971
10253 3372 9532
10254 4317 6128
10255 3141 8713
10256 1778 4470
10257 4604 1764
10258 4985 4479
10259 4665 7333
10260 4694 4433
10261 6421 2882
10262 9394 5284
10263 3919 5675
10264 9715 2883
10265 9693 3716
10266 5792 8801
10267 1177 7805
10268 7027 593 
10269 1227 3383
10270 4600 9388
10271 34   6168
10272 3321 1672
10273 7284 9550
10274 7060 6764
10275 3126 6525
10276 7541 5350
10277 3652 785 
10278 6314 5369
10279 583  7326
10280 8404 8092
10281 4436 9523
10282 4814 3325
10283 1134 2315
10284 4225 4729
10285 1916 9904
10286 3977 3459
10287 3171 1682
10288 7325 3287
10289 3583 4792
10290 282  5290
10291 3771 5583
10292 5130 8166
10293 7832 875 
10294 8613 72  
10295 8159 3114
10296 5021 4221
10297 8123 5109
10298 7990 6480
10299 6917 5139
10300 6273 1061
10301 4372 2259
10302 6506 7779
10303 6506 4294
10304 6882 3082
10305 3503 9309
10306 1562 9166
10307 2197 1851
10308 3247 4316
10309 9485 5172
10310 6869 4690
10311 5183 9670
10312 4811 2821
10313 908  2458
10314 5424 6343
10315 292  3370
10316 4097 6744
10317 268  4340
10318 7347 5244
10319 6139 537 
10320 2651 3987
10321 1361 2476
10322 5456 403 
10323 1795 3473
10324 2309 4578
10325 1781 9965
10326 358  942 
10327 4913 2592
10328 5387 3260
10329 2306 5044
10330 7961 7163
10331 642  4401
10332 1556 1933
10333 6534 4927
10334 1654 5712
10335 1444 4411
10336 7166 2934
10337 4207 8765
10338 5682 3154
10339 2598 6522
10340 7760 3686
10341 4352 1365
10342 3303 5280
10343 2137 3250
10344 4546 5963
10345 151  2531
10346 3422 6783
10347 2045 8105
10348 3946 155 
10349 4905 4817
10350 7922 2984
10351 1226 3903
10352 8652 5442
10353 7309 780 
10354 313  3410
10355 5431 8982
10356 1482 3896
10357 7350 8011
10358 9361 5006
10359 8955 7523
10360 7728 7   
10361 9087 5130
10362 8544 2445
10363 4571 7216
10364 6582 1444
10365 2889 6352
10366 6924 5092
10367 3100 7737
10368 5535 2429
10369 6602 177 
10370 3479 4778
10371 9877 797 
10372 8015 1222
10373 4907 7604
10374 526  4591
10375 8270 8206
10376 2906 7280
10377 630  6314
10378 5920 8727
10379 7682 9936
10380 3604 2435
10381 2647 1916
10382 8489 3364
10383 6843 2440
10384 4998 5679
10385 4901 3376
10386 7382 6899
10387 1779 9450
10388 4874 5226
10389 2689 8538
10390 3406 8953
10391 4557 8357
10392 7687 9561
10393 1298 7222
10394 7267 3372
10395 9171 7943
10396 4847 8003
10397 4851 3941
10398 3659 5498
10399 8206 9018
10400 1279 3197
10401 8240 2053
10402 6627 7126
10403 1718 5873
10404 5439 4266
10405 5168 3562
10406 285  3165
10407 150  6829
10408 4662 8871
10409 5874 7615
10410 3731 4417
10411 7241 761 
10412 5415 4599
10413 4490 6025
10414 9350 132 
10415 7683 6274
10416 9447 9717
10417 4161 1926
10418 6128 9205
10419 8516 4418
10420 1754 461 
10421 8630 9368
10422 5233 3975
10423 1107 5774
10424 9569 4164
10425 8649 5053
10426 2799 989 
10427 6833 7693
10428 1337 4380
10429 3639 7664
10430 2190 8511
10431 6147 4961
10432 1158 4267
10433 9972 9985
10434 9039 5695
10435 3840 3654
10436 3410 5811
10437 133  640 
10438 6604 1085
10439 172  8541
10440 888  4884
10441 4195 8303
10442 5608 6701
10443 6847 8561
10444 4785 7331
10445 1810 1184
10446 396  7148
10447 1315 6814
10448 2864 6907
10449 6901 2832
10450 2588 1767
10451 5466 8825
10452 5780 7541
10453 9536 8972
10454 9156 5401
10455 2528 5027
10456 4064 3319
10457 2721 3032
10458 9970 9904
10459 6774 4199
10460 654  1919
10461 2556 9832
10462 1576 3144
10463 6654 763 
10464 437  1303
10465 6817 7121
10466 1522 2855
10467 8565 6537
10468 4418 9613
10469 7871 2058
10470 7314 5526
10471 1366 4563
10472 7335 933 
10473 1748 4622
10474 4505 7626
10475 4921 4061
10476 9349 9861
10477 6880 9971
10478 3403 3447
10479 6908 9327
10480 5813 672 
10481 8709 3661
10482 9267 8632
10483 3993 8974
10484 7137 1961
10485 9772 2032
10486 8942 1155
10487 3494 2668
10488 7386 272 
10489 9190 5306
10490 8520 8965
10491 1554 9069
10492 6623 1863
10493 8224 9075
10494 7056 188 
10495 2878 828 
10496 1998 246 
10497 4983 9669
10498 4748 1281
10499 5004 3227
10500 8212 6279
10501 7235 6599
10502 3559 1725
10503 8342 8053
10504 9175 8851
10505 4011 8295
10506 5127 2112
10507 6538 8036
10508 630  2358
10509 3958 2308
10510 2832 2805
10511 7621 64  
10512 7867 1916
10513 4030 4877
10514 7810 2236
10515 9123 7745
10516 7355 493 
10517 5077 5264
10518 6948 5016
10519 388  8403
10520 6233 2943
10521 5695 260 
10522 5893 7921
10523 2773 9371
10524 7127 5686
10525 9112 7952
10526 3085 7301
10527 5246 6536
10528 6271 5868
10529 7582 1547
10530 6821 3323
10531 1649 6861
10532 8611 6116
10533 2165 4621
10534 7166 5543
10535 7241 3020
10536 8539 7421
10537 918  2071
10538 7095 8374
10539 8974 2957
10540 304  9212
10541 2134 5948
10542 5493 8948
10543 3607 4406
10544 2822 7793
10545 4867 8256
10546 154  2557
10547 3046 5834
10548 8075 2114
10549 2898 8046
10550 2431 9082
10551 192  6672
10552 581  9526
10553 715  5433
10554 7770 3609
10555 2129 9893
10556 796  4351
10557 9624 6681
10558 2290 7997
10559 9245 4035
10560 1216 1748
10561 536  4621
10562 1420 2110
10563 1150 2309
10564 1300 7780
10565 7663 6718
10566 6264 7417
10567 2922 9134
10568 2660 4707
10569 7068 4222
10570 1967 6371
10571 8787 5998
10572 223  5676
10573 5834 9109
10574 9329 7734
10575 2573 2749
10576 4191 7650
10577 5335 2113
10578 8029 5614
10579 4754 7979
10580 8479 1308
10581 6825 5677
10582 5248 1946
10583 4784 895 
10584 7560 2828
10585 274  3854
10586 1892 3406
10587 3982 4955
10588 2710 8840
10589 3150 9813
10590 3838 6501
10591 6187 6704
10592 7713 7874
10593 7661 4289
10594 7019 7368
10595 762  939 
10596 1892 6591
10597 7082 3158
10598 7058 5995
10599 6179 9947
10600 1293 5611
10601 4236 79  
10602 9885 3751
10603 1932 6413
10604 8577 7952
10605 4176 1160
10606 104  1211
10607 1250 6490
10608 8080 1346
10609 4089 9946
10610 7830 8221
10611 9689 7176
10612 6311 7191
10613 1054 6572
10614 6624 10000
10615 3898 1796
10616 8805 4598
10617 370  2219
10618 2318 4872
10619 1790 2445
10620 2938 7802
10621 2310 6015
10622 3619 9278
10623 174  4955
10624 3479 4634
10625 7400 7207
10626 323  2416
10627 5143 9659
10628 4782 5300
10629 1475 7408
10630 8372 9905
10631 2007 8054
10632 3590 479 
10633 7633 4757
10634 3156 1971
10635 8994 2212
10636 7459 2885
10637 7814 7369
10638 5351 6971
10639 7426 6201
10640 3817 8885
10641 9447 3373
10642 1484 1491
10643 9481 3420
10644 4364 8626
10645 7794 3561
10646 3713 2612
10647 1638 8462
10648 7320 9831
10649 4483 8853
10650 9172 4348
10651 6711 0   
10652 3011 1597
10653 3384 9056
10654 2567 9249
10655 1638 4736
10656 3886 8832
10657 18   978 
10658 6480 1900
10659 2265 8976
10660 6898 6902
10661 8304 9186
10662 845  3952
10663 492  2264
10664 9035 972 
10665 6789 1574
10666 5771 3298
10667 3780 1559
10668 5599 6765
10669 7409 2819
10670 7513 585 
10671 1146 3758
10672 1961 4852
10673 6644 2495
10674 8429 8221
10675 5216 7362
10676 6001 6950
10677 1407 1842
10678 5383 5095
10679 8029 4587
10680 7504 8684
10681 3983 1558
10682 9419 9000
10683 784  414 
10684 7900 1975
10685 9372 6542
10686 2037 2138
10687 473  4965
10688 4750 6692
10689 1758 3688
10690 7944 4767
10691 4067 1663
10692 4451 8521
10693 7025 1741
10694 676  9687
10695 7821 3336
10696 9421 7017
10697 1863 8532
10698 1208 3773
10699 1603 5004
10700 4317 5599
10701 4961 572 
10702 8580 4353
10703 7118 4721
10704 5073 3745
10705 2458 5704
10706 2487 7438
10707 9177 9984
10708 9991 7710
10709 144  5432
10710 7057 4165
10711 8359 7470
10712 1618 1059
10713 9809 5761
10714 5415 1074
10715 1089 2895
10716 3132 4339
10717 1443 4856
10718 7010 3262
10719 3809 5541
10720 9129 29  
10721 1935 7975
10722 616  7858
10723 5641 6296
10724 7133 3793
10725 7938 4127
10726 2029 9049
10727 3314 8548
10728 8158 625 
10729 8512 2007
10730 2460 1861
10731 1150 5332
10732 2281 6408
10733 9120 3461
10734 8249 7873
10735 1929 7710
10736 1619 9175
10737 1993 7642
10738 5131 5264
10739 9544 1592
10740 9213 5099
10741 9481 9680
10742 2806 5511
10743 1342 6407
10744 5711 3183
10745 9741 8919
10746 6939 7444
10747 2760 9878
10748 8709 4236
10749 5571 6332
10750 8109 9661
10751 8826 4206
10752 4676 7190
10753 4540 8475
10754 143  498 
10755 9585 7180
10756 8301 7901
10757 8955 3051
10758 6333 6512
10759 5839 6198
10760 4172 6029
10761 942  1269
10762 8260 7041
10763 1024 5762
10764 8568 6515
10765 9558 1979
10766 4658 9137
10767 5576 841 
10768 8365 3659
10769 6817 8546
10770 1435 2426
10771 3394 4107
10772 3046 5406
10773 4487 9637
10774 6457 7176
10775 1380 8516
10776 8040 9034
10777 3081 2192
10778 2372 2360
10779 1165 76  
10780 8300 3380
10781 8447 7955
10782 6021 3064
10783 1716 1373
10784 874  8791
10785 4728 8073
10786 9369 3285
10787 6104 936 
10788 8627 659 
10789 3164 2827
10790 2553 7160
10791 2758 6785
10792 1721 9433
10793 4373 3037
10794 5263 4572
10795 566  2323
10796 2714 6590
10797 5826 2841
10798 9127 8662
10799 9834 8988
10800 7925 5678
10801 5075 8679
10802 3824 9015
10803 838  5923
10804 761  8717
10805 5890 2413
10806 4601 6702
10807 6959 1774
10808 5134 8311
10809 2936 8297
10810 6741 4313
10811 924  779 
10812 6017 1839
10813 6379 2261
10814 8039 1576
10815 7896 2314
10816 2292 6426
10817 5431 2782
10818 2911 6002
10819 7376 4257
10820 6812 3234
10821 3982 7276
10822 8227 9753
10823 9877 9525
10824 7162 7578
10825 5779 2395
10826 1200 7158
10827 9655 6919
10828 2672 3817
10829 4589 3342
10830 8086 6799
10831 9072 7901
10832 3243 7584
10833 4963 3270
10834 885  7116
10835 8265 6008
10836 4743 2061
10837 7710 6013
10838 3189 8042
10839 7933 7651
10840 929  3871
10841 9326 3915
10842 8512 2454
10843 6269 681 
10844 3590 9950
10845 3981 5830
10846 1105 1051
10847 407  7844
10848 4296 7230
10849 1870 9460
10850 7139 2257
10851 6954 2278
10852 1259 5524
10853 3568 6745
10854 5464 5674
10855 1318 1838
10856 2496 4859
10857 4816 7230
10858 6122 1310
10859 3918 3038
10860 9669 7501
10861 5132 9744
10862 7759 1712
10863 2317 3002
10864 5515 4526
10865 3428 999 
10866 9316 8252
10867 7390 5730
10868 969  8272
10869 1024 1405
10870 2933 5549
10871 9514 6181
10872 4758 2626
10873 9937 6826
10874 9538 7338
10875 4600 8077
10876 1244 1179
10877 4219 5861
10878 4375 411 
10879 8924 5766
10880 2544 5983
10881 1800 4935
10882 8792 9649
10883 6515 1072
10884 7750 8449
10885 4880 7368
10886 5004 7302
10887 9986 3252
10888 6394 1611
10889 2812 1678
10890 9122 3662
10891 2023 7991
10892 390  5574
10893 7305 1890
10894 354  7988
10895 4662 7076
10896 8147 4396
10897 4042 1795
10898 1218 1873
10899 1961 3387
10900 2438 4744
10901 956  5469
10902 6674 9819
10903 1215 1196
10904 3216 2957
10905 5451 3763
10906 1508 8298
10907 4790 7702
10908 1165 4080
10909 949  7081
10910 1448 2843
10911 4828 4632
10912 6667 9143
10913 9178 8197
10914 2221 5852
10915 8615 9000
10916 8661 1583
10917 6532 7908
10918 8171 7171
10919 5464 7830
10920 5205 6764
10921 9550 66  
10922 9073 752 
10923 7857 4461
10924 8731 9847
10925 2294 9448
10926 2632 3578
10927 8230 8868
10928 2225 5881
10929 8596 8517
10930 7281 4110
10931 3796 844 
10932 8530 5858
10933 7421 5525
10934 9815 2459
10935 152  3958
10936 6833 4145
10937 1964 6702
10938 5474 2162
10939 5744 9821
10940 5444 1358
10941 8978 3923
10942 5329 1494
10943 6592 2175
10944 965  2517
10945 9061 4573
10946 7463 7480
10947 2383 4029
10948 6327 7995
10949 5592 5110
10950 9732 3998
10951 4947 617 
10952 8823 573 
10953 7237 3124
10954 976  8925
10955 8195 5409
10956 6583 161 
10957 7756 680 
10958 2980 5192
10959 361  3177
10960 677  2253
10961 4875 6695
10962 8797 9873
10963 6055 3692
10964 1922 4341
10965 1035 1564
10966 6288 2519
10967 4488 4852
10968 8173 2779
10969 7089 2659
10970 8347 7965
10971 4102 4388
10972 6663 2337
10973 2439 6049
10974 6122 6898
10975 3982 3611
10976 3906 8814
10977 3670 8533
10978 8839 9557
10979 7096 1607
10980 3034 320 
10981 4541 5407
10982 3625 5020
10983 9620 7901
10984 8997 9327
10985 9139 6112
10986 6781 4750
10987 313  6440
10988 5053 6440
10989 3055 5699
10990 8405 6007
10991 5979 5043
10992 8098 96  
10993 8855 9319
10994 871  9545
10995 7014 3570
10996 7921 7761
10997 844  8808
10998 9131 836 
10999 1844 6325
11000 9991 7399
11001 3160 1433
11002 4259 5682
11003 5642 6939
11004 4053 4369
11005 5035 9747
11006 955  5078
11007 626  1356
11008 1367 8124
11009 9582 8742
11010 656  545 
11011 3951 4939
11012 6618 2571
11013 5509 259 
11014 5307 5044
11015 6055 9197
11016 7507 7771
11017 2584 9517
11018 3481 1684
11019 7036 7456
11020 2429 9016
11021 7317 9292
11022 3667 3974
11023 3637 1826
11024 8408 7620
11025 7000 6329
11026 8387 1870
11027 4661 3833
11028 8988 3560
11029 7550 7135
11030 2079 0   
11031 3002 2969
11032 7281 6735
11033 5088 5274
11034 4217 8703
11035 9181 2666
11036 6367 538 
11037 1539 5949
11038 7316 2641
11039 6280 5018
11040 9577 6907
11041 3343 6424
11042 423  6357
11043 1911 6908
11044 6667 7811
11045 4242 6458
11046 9591 233 
11047 850  1607
11048 9782 8935
11049 6454 3200
11050 7553 383 
11051 4869 5060
11052 9363 5212
11053 6921 8738
11054 9665 5713
11055 9076 3420
11056 7151 8210
11057 8909 2835
11058 6224 344 
11059 9943 5267
11060 5118 169 
11061 1810 7173
11062 4304 411 
11063 1903 5767
11064 4599 8251
11065 541  8005
11066 8886 2467
11067 3876 3076
11068 1213 4000
11069 8050 3591
11070 6273 1986
11071 7814 5384
11072 7787 1061
11073 5745 949 
11074 2762 7989
11075 7448 1837
11076 954  2251
11077 9840 2840
11078 6696 8930
11079 3177 2319
11080 1663 6608
11081 7470 9272
11082 6504 8141
11083 7368 8941
11084 1619 9565
11085 9722 1526
11086 4468 2772
11087 699  1064
11088 3988 6304
11089 6785 2777
11090 2495 8370
11091 4220 1790
11092 2115 4040
11093 3003 3688
11094 9456 1062
11095 5506 885 
11096 9804 1651
11097 1171 9721
11098 8091 854 
11099 670  1018
11100 2574 2962
11101 8611 3211
11102 5955 6111
11103 5630 4606
11104 3846 2023
11105 595  7315
11106 4690 165 
11107 7581 7554
11108 4203 8667
11109 7755 8595
11110 6962 545 
11111 297  885 
11112 6263 3575
11113 1901 2374
11114 5632 902 
11115 2427 6952
11116 3442 2188
11117 8265 8879
11118 6343 3532
11119 6935 8745
11120 7577 4143
11121 657  7771
11122 9033 3392
11123 7548 4030
11124 2798 3678
11125 9466 5110
11126 99   649 
11127 2469 5307
11128 4437 7398
11129 7427 8783
11130 3882 2152
11131 351  9168
11132 3034 8546
11133 9293 2150
11134 3347 9327
11135 7889 1370
11136 3944 1143
11137 2634 7685
11138 8655 8962
11139 2164 5315
11140 3177 9527
11141 2138 7979
11142 1682 6844
11143 5361 1772
11144 3126 861 
11145 8456 6   
11146 7694 4490
11147 9626 6454
11148 4854 3130
11149 1221 3188
11150 211  5859
11151 4949 2770
11152 5539 7013
11153 9905 8925
11154 8081 7613
11155 4474 9986
11156 5796 4663
11157 2235 7115
11158 2365 2044
11159 6660 9783
11160 8623 4358
11161 991  6562
11162 7034 3847
11163 1988 4074
11164 3914 1259
11165 8271 9880
11166 1040 7519
11167 6432 7250
11168 3200 5420
11169 7061 2309
11170 6364 8250
11171 3706 3884
11172 9426 4458
11173 8033 729 
11174 5638 8639
11175 5255 318 
11176 7292 3636
11177 5046 5642
11178 5791 4832
11179 4834 4612
11180 3118 2941
11181 2185 8428
11182 425  8199
11183 7216 6620
11184 8424 7433
11185 4493 7261
11186 3398 4623
11187 4592 1965
11188 7614 7744
11189 4249 2949
11190 6563 5109
11191 1003 5685
11192 8510 5557
11193 9281 3258
11194 989  2911
11195 2406 9886
11196 5302 4526
11197 6101 8484
11198 6111 4728
11199 6058 3444
11200 4457 632 
11201 4099 89  
11202 807  1324
11203 4605 5524
11204 6645 7671
11205 5110 3763
11206 2310 7319
11207 73   8056
11208 4163 8462
11209 8204 4533
11210 8182 6157
11211 12   1593
11212 2358 6227
11213 5724 4160
11214 2984 3985
11215 8138 7455
11216 9497 2642
11217 5441 562 
11218 7976 7517
11219 2426 9458
11220 6668 9748
11221 4280 3058
11222 5136 95  
11223 7279 281 
11224 6256 4724
11225 4332 4458
11226 9490 5495
11227 9318 1043
11228 7775 4358
11229 6465 1516
11230 6894 7219
11231 1907 7025
11232 8952 2095
11233 5793 5704
11234 2766 9609
11235 3787 2020
11236 7382 7032
11237 73   7277
11238 8604 1042
11239 5413 2698
11240 2640 9846
11241 4507 7783
11242 4608 5514
11243 5868 7408
11244 4655 1395
11245 6874 3820
11246 9362 1120
11247 1186 4731
11248 809  9497
11249 7612 2776
11250 136  7011
11251 137  2051
11252 2496 3276
11253 2025 7090
11254 4007 1341
11255 1071 4395
11256 5625 5461
11257 6547 8862
11258 8539 5799
11259 1203 9135
11260 3276 5418
11261 5837 3082
11262 6783 880 
11263 9093 3827
11264 5195 954 
11265 1822 1322
11266 5496 7987
11267 1674 8917
11268 4815 4530
11269 9412 1269
11270 9778 514 
11271 6227 7248
11272 3797 5436
11273 1388 6668
11274 8752 744 
11275 3904 4038
11276 7949 3432
11277 6515 4006
11278 5315 9910
11279 9437 7360
11280 6178 3114
11281 8013 2438
11282 7458 1423
11283 6540 8821
11284 6717 8851
11285 4089 537 
11286 9257 956 
11287 7922 2259
11288 4168 1042
11289 3656 6043
11290 3759 2096
11291 7074 8211
11292 4205 5293
11293 8076 2629
11294 4873 9437
11295 2039 737 
11296 1504 9284
11297 6367 859 
11298 866  7574
11299 2760 3206
11300 3174 4808
11301 3965 4147
11302 321  4559
11303 787  9871
11304 4262 2971
11305 9365 1703
11306 1736 4634
11307 3895 4825
11308 2771 316 
11309 4779 4235
11310 4146 236 
11311 4552 9110
11312 243  6882
11313 47   2505
11314 7784 1743
11315 1206 5391
11316 5905 9780
11317 8944 4795
11318 9134 8437
11319 5193 6886
11320 6472 5754
11321 5070 6973
11322 6732 2760
11323 5557 8404
11324 2905 6782
11325 8458 9319
11326 4190 7952
11327 3914 1268
11328 1971 407 
11329 686  9864
11330 7523 6117
11331 3485 9362
11332 3146 2801
11333 694  3535
11334 7531 2166
11335 9094 4279
11336 371  3286
11337 3786 669 
11338 9811 3179
11339 1920 7874
11340 1138 3936
11341 529  3272
11342 4577 7248
11343 5634 4845
11344 9807 2056
11345 1773 9949
11346 4759 3759
11347 2665 2579
11348 2360 9606
11349 495  1607
11350 4561 4826
11351 7715 9264
11352 3034 2799
11353 4939 3536
11354 5535 7420
11355 7350 6978
11356 7638 7714
11357 1712 240 
11358 3951 6250
11359 7106 650 
11360 6335 9197
11361 8534 7784
11362 974  8739
11363 4833 639 
11364 3162 1257
11365 4701 8299
11366 2868 5796
11367 8387 8027
11368 884  6585
11369 2139 8013
11370 7249 885 
11371 4741 727 
11372 6271 3846
11373 61   1671
11374 7873 1996
11375 4221 6826
11376 8442 8604
11377 7770 5179
11378 6632 1783
11379 9895 7585
11380 8440 5756
11381 2168 1744
11382 1444 5137
11383 5998 2631
11384 2048 8619
11385 7960 6594
11386 3379 3053
11387 674  9618
11388 3518 1544
11389 4750 8742
11390 243  1944
11391 9669 1722
11392 9589 4491
11393 8549 7785
11394 7963 2160
11395 5171 9694
11396 9961 6682
11397 9036 1487
11398 9267 3241
11399 382  8863
11400 5124 628 
11401 7951 6233
11402 1409 8141
11403 3205 5614
11404 1926 7021
11405 6743 1409
11406 6176 7305
11407 5631 2750
11408 6543 6046
11409 7262 4933
11410 4826 7661
11411 9614 3106
11412 6733 2209
11413 6597 2825
11414 6782 3811
11415 9489 4052
11416 3639 4553
11417 5130 5973
11418 5224 4924
11419 6795 6066
11420 937  9492
11421 5893 813 
11422 9518 8808
11423 2280 5452
11424 6207 105 
11425 1768 1451
11426 2491 9612
11427 3647 6928
11428 4068 2358
11429 3010 5774
11430 5475 6764
11431 843  5346
11432 9825 9476
11433 5654 2099
11434 4355 8018
11435 3844 3722
11436 7436 5684
11437 2494 9454
11438 9785 8569
11439 2249 3530
11440 9794 9839
11441 4854 7132
11442 9797 4170
11443 5790 9966
11444 3286 1819
11445 271  8291
11446 387  5968
11447 7590 9647
11448 5015 875 
11449 9212 8554
11450 4592 7233
11451 1602 1440
11452 7221 6026
11453 7355 6085
11454 5145 9923
11455 7650 5147
11456 4057 1802
11457 6357 8345
11458 8991 4797
11459 2329 1458
11460 2064 9058
11461 9580 6839
11462 2121 8928
11463 4767 7581
11464 3074 5535
11465 496  9314
11466 7057 1165
11467 7536 2040
11468 1289 217 
11469 3506 33  
11470 5657 6635
11471 3114 9035
11472 1144 7441
11473 4914 5916
11474 1522 5554
11475 3115 1164
11476 3413 7464
11477 3392 9287
11478 1262 8877
11479 8228 7501
11480 6631 9822
11481 8606 4029
11482 4559 5916
11483 489  2027
11484 8885 4562
11485 251  3105
11486 6938 3259
11487 1321 6625
11488 1041 2729
11489 5135 4028
11490 544  4546
11491 2914 2042
11492 5691 445 
11493 830  6339
11494 5865 5322
11495 707  5663
11496 8218 8913
11497 2103 4570
11498 2157 8800
11499 5332 6316
11500 3696 6429
11501 9281 7986
11502 5370 4262
11503 3913 1395
11504 9816 6932
11505 1668 9148
11506 2346 5525
11507 7302 3569
11508 4665 1884
11509 41   7086
11510 8091 7125
11511 6856 597 
11512 8175 5875
11513 4449 8162
11514 1969 3461
11515 7925 820 
11516 3060 2713
11517 4003 1037
11518 9956 5681
11519 7764 5693
11520 9121 3070
11521 4225 1822
11522 2024 4622
11523 4911 2526
11524 1513 9386
11525 8283 6660
11526 7876 4738
11527 6587 6710
11528 9773 3531
11529 295  9332
11530 3476 524 
11531 4819 9971
11532 140  1754
11533 1423 6923
11534 2405 7445
11535 6151 6167
11536 9446 3347
11537 8560 2565
11538 1426 9796
11539 6830 4207
11540 6529 8413
11541 8758 2976
11542 3317 633 
11543 3198 5035
11544 2924 3220
11545 1046 8920
11546 7822 4658
11547 6437 7343
11548 7244 9878
11549 8645 1736
11550 4030 8681
11551 1211 428 
11552 1807 4223
11553 8913 2657
11554 8293 5870
11555 5475 4415
11556 1712 4238
11557 9077 5159
11558 3441 3825
11559 5947 6102
11560 1284 1351
11561 1338 3680
11562 6116 2939
11563 8451 5298
11564 7806 2656
11565 6652 669 
11566 6339 4597
11567 2145 5861
11568 3026 4262
11569 3516 8379
11570 3587 8248
11571 9441 4899
11572 2661 4426
11573 4727 2943
11574 9836 8703
11575 586  3713
11576 8056 7756
11577 8674 9807
11578 9781 2702
11579 4005 6865
11580 762  781 
11581 8809 179 
11582 662  9148
11583 4797 7716
11584 9246 120 
11585 3919 1873
11586 4456 6361
11587 7877 9764
11588 3559 2662
11589 5904 7363
11590 7023 7078
11591 8048 3904
11592 3081 1906
11593 8395 1753
11594 2672 5656
11595 8993 7839
11596 1541 487 
11597 3602 6843
11598 8154 7400
11599 9817 4380
11600 3093 3896
11601 7569 655 
11602 5613 4411
11603 2273 7794
11604 47   4265
11605 6541 5440
11606 9538 7793
11607 3001 3658
11608 2109 4465
11609 8432 1439
11610 9057 1932
11611 2730 7120
11612 9248 3027
11613 534  492 
11614 4904 6581
11615 448  4110
11616 2589 1803
11617 9329 5439
11618 683  7159
11619 1018 9022
11620 5347 2640
11621 8579 9294
11622 8779 1352
11623 1449 7368
11624 1501 432 
11625 3997 6656
11626 5139 2063
11627 5241 4308
11628 8199 7484
11629 1614 6036
11630 6493 399 
11631 151  8109
11632 9964 6710
11633 8851 9439
11634 623  9625
11635 8451 1445
11636 7100 2251
11637 765  6548
11638 8760 2274
11639 3404 4061
11640 140  1980
11641 8079 6874
11642 4012 8008
11643 1691 8839
11644 5613 829 
11645 2840 3159
11646 9012 8496
11647 8442 1423
11648 5526 5464
11649 9771 5410
11650 534  4517
11651 5574 7779
11652 6122 1976
11653 6536 350 
11654 1099 8152
11655 6095 3159
11656 370  7942
11657 2937 4417
11658 9921 736 
11659 62   5901
11660 6438 7652
11661 7548 6902
11662 6841 2604
11663 2162 9863
11664 2114 9100
11665 164  8330
11666 527  4311
11667 8693 8604
11668 1884 8284
11669 3571 3716
11670 2790 7872
11671 5584 3511
11672 3241 6451
11673 6782 6555
11674 4312 4243
11675 5874 3503
11676 8813 4527
11677 8070 9727
11678 209  8607
11679 194  5144
11680 5116 7409
11681 4213 822 
11682 4631 8009
11683 9463 707 
11684 2592 7337
11685 2725 7114
11686 6810 7924
11687 7365 8370
11688 8293 2642
11689 8997 6045
11690 8785 4751
11691 7167 5052
11692 8999 6211
11693 6663 8434
11694 4632 2861
11695 2993 9680
11696 9331 5460
11697 5371 3741
11698 9565 2823
11699 8058 3101
11700 1638 4761
11701 8286 5809
11702 984  1547
11703 7549 7706
11704 5556 272 
11705 9149 8220
11706 3259 9915
11707 1890 1598
11708 5244 7683
11709 4578 906 
11710 1201 3679
11711 4904 5139
11712 2670 1556
11713 9241 5352
11714 2325 5319
11715 5967 6032
11716 9051 480 
11717 6067 8680
11718 2419 6696
11719 1314 4198
11720 8942 6623
11721 460  1102
11722 6234 8718
11723 6417 4450
11724 6340 7607
11725 3377 1724
11726 5854 2005
11727 3705 6280
11728 9591 9074
11729 858  5871
11730 8891 4251
11731 4314 1639
11732 5792 8675
11733 1546 4231
11734 7339 4892
11735 6247 7908
11736 3037 7085
11737 4685 7561
11738 3192 9726
11739 2084 7208
11740 5097 1919
11741 2308 8578
11742 4764 7002
11743 1197 2187
11744 8413 7176
11745 1954 6794
11746 7688 2409
11747 864  5701
11748 5587 1005
11749 3997 7402
11750 5561 3088
11751 9894 4264
11752 6480 7524
11753 4128 788 
11754 7455 5235
11755 2914 3026
11756 3583 240 
11757 5469 6816
11758 965  3507
11759 2173 5965
11760 8401 7291
11761 496  1842
11762 5140 5443
11763 5941 2146
11764 9057 3441
11765 411  1648
11766 8642 9634
11767 6275 6149
11768 2468 8943
11769 1691 2000
11770 2464 7654
11771 59   9130
11772 6608 376 
11773 9120 2327
11774 4163 6638
11775 8314 4779
11776 5319 8223
11777 2903 5295
11778 2254 565 
11779 2905 6818
11780 7546 7149
11781 9284 4519
11782 6845 4024
11783 467  3654
11784 2836 1973
11785 1386 3856
11786 9600 1305
11787 8704 5926
11788 6003 5761
11789 8182 8343
11790 6402 201 
11791 4714 5482
11792 1760 9748
11793 3232 6412
11794 9289 5610
11795 417  56  
11796 3983 2808
11797 7648 9006
11798 6430 3298
11799 2077 6219
11800 9389 5270
11801 5917 508 
11802 8514 3773
11803 3515 8185
11804 2921 1660
11805 8605 7087
11806 6630 175 
11807 3333 3270
11808 1851 9420
11809 3854 6680
11810 8868 3925
11811 6474 6205
11812 4631 9846
11813 8297 9162
11814 9610 4981
11815 1232 885 
11816 6759 1589
11817 9862 2306
11818 7629 5832
11819 6959 9609
11820 329  2540
11821 3929 2813
11822 7886 7844
11823 5632 8814
11824 3083 8643
11825 6898 7580
11826 9579 2991
11827 5384 2426
11828 1068 1103
11829 9990 3164
11830 3236 6276
11831 6887 5852
11832 5345 5420
11833 2194 4026
11834 2265 8653
11835 859  7624
11836 4855 2501
11837 3252 5656
11838 4804 6661
11839 9523 4679
11840 8808 1068
11841 5882 7089
11842 6279 791 
11843 1888 226 
11844 3316 1133
11845 8599 5054
11846 8633 2992
11847 4216 1949
11848 54   2262
11849 8151 1416
11850 6649 2485
11851 7945 1651
11852 6872 4352
11853 7276 9934
11854 9279 9604
11855 5570 5684
11856 2366 4517
11857 162  1529
11858 2768 7288
11859 9152 801 
11860 6208 3130
11861 3588 9779
11862 8400 2721
11863 2311 9982
11864 659  9300
11865 4362 7004
11866 2615 1788
11867 9331 3303
11868 3485 4554
11869 9300 3846
11870 1040 1255
11871 4692 8684
11872 2914 8659
11873 6411 670 
11874 346  1242
11875 8406 4561
11876 2175 1271
11877 2985 657 
11878 3701 2117
11879 2528 936 
11880 6116 1385
11881 2185 5762
11882 9057 6349
11883 613  2546
11884 9104 7287
11885 808  2249
11886 4617 882 
11887 1778 6516
11888 7985 5778
11889 8712 163 
11890 5117 103 
11891 545  8570
11892 5211 1703
11893 52   4709
11894 7551 4579
11895 6730 4931
11896 5702 9264
11897 8626 768 
11898 792  7034
11899 5825 2440
11900 6389 9599
11901 6904 6954
11902 262  8613
11903 7127 7537
11904 5162 4298
11905 1730 3307
11906 439  642 
11907 5176 5646
11908 7554 4556
11909 48   5965
11910 7091 2120
11911 1561 24  
11912 7961 6995
11913 3995 1810
11914 8382 6922
11915 135  2391
11916 2220 6828
11917 6010 515 
11918 5285 6663
11919 2119 8338
11920 1689 8378
11921 4620 4310
11922 3766 4276
11923 8719 2145
11924 5752 2509
11925 4613 2139
11926 8733 5220
11927 7581 8133
11928 7670 7636
11929 6589 2876
11930 9735 1978
11931 5024 1357
11932 7864 4366
11933 111  5001
11934 2312 4347
11935 764  2374
11936 5505 9336
11937 4256 5101
11938 1291 4566
11939 6263 4911
11940 7921 5401
11941 0    3396
11942 5392 4690
11943 3057 1874
11944 9333 3383
11945 4502 4378
11946 1691 4614
11947 4566 4584
11948 8960 8063
11949 551  9162
11950 4293 2716
11951 3075 8036
11952 2459 867 
11953 6512 8722
11954 8893 8922
11955 5033 9626
11956 356  2949
11957 8737 4539
11958 8169 8299
11959 1572 5054
11960 9435 4541
11961 9806 4188
11962 1336 4017
11963 544  3661
11964 5886 6876
11965 2306 4399
11966 2018 1284
11967 7974 8750
11968 8306 4506
11969 4410 1576
11970 216  9667
11971 1297 2467
11972 5429 395 
11973 9351 3446
11974 9983 9162
11975 6071 4985
11976 9750 3956
11977 8228 421 
11978 4082 7118
11979 5495 8896
11980 3313 9160
11981 3882 8849
11982 3190 17  
11983 6145 6953
11984 5765 7009
11985 6405 5374
11986 6842 2447
11987 9740 5370
11988 6827 1833
11989 9988 3249
11990 3540 9223
11991 2429 5134
11992 8694 9535
11993 8268 7797
11994 7612 5541
11995 8495 9366
11996 3660 6309
11997 8301 9118
11998 611  8465
11999 4044 7081
12000 5550 2218
12001 8760 2408
12002 6577 7293
12003 4266 4472
12004 1376 931 
12005 7997 7140
12006 880  786 
12007 5138 663 
12008 9483 1479
12009 868  8678
12010 7114 4198
12011 8617 5187
12012 231  9874
12013 9369 1792
12014 7590 8322
12015 5983 6883
12016 8171 1266
12017 8938 6381
12018 1322 5394
12019 2579 8549
12020 8149 1315
12021 3513 8935
12022 5828 1804
12023 1102 7706
12024 7913 6637
12025 7517 9459
12026 2722 5694
12027 6031 6631
12028 9281 2200
12029 4004 6611
12030 3262 2   
12031 7801 1185
12032 4511 4426
12033 2456 5798
12034 1414 7925
12035 6754 1570
12036 4137 1582
12037 356  9047
12038 5758 1322
12039 4176 431 
12040 8451 1496
12041 5785 522 
12042 7580 990 
12043 2247 1388
12044 1310 1419
12045 9385 2756
12046 3171 9636
12047 5172 3619
12048 1970 7992
12049 5139 5051
12050 2120 7559
12051 9729 64  
12052 3110 8506
12053 6935 1880
12054 2119 3368
12055 5629 9351
12056 3664 7081
12057 7612 6211
12058 8372 6578
12059 6579 1419
12060 7946 178 
12061 2591 5881
12062 6526 2674
12063 4779 2308
12064 2829 7789
12065 1025 759 
12066 215  7881
12067 5580 1034
12068 8635 5948
12069 6557 7355
12070 6649 8573
12071 2080 5152
12072 609  419 
12073 1903 6243
12074 4015 1234
12075 8150 7563
12076 9028 8117
12077 5392 2131
12078 8024 9673
12079 304  8561
12080 4937 5659
12081 3265 9274
12082 5400 5158
12083 7716 4452
12084 7804 9748
12085 4266 8189
12086 5897 6407
12087 6987 7646
12088 3565 5915
12089 6359 5004
12090 3102 993 
12091 7215 387 
12092 9924 2522
12093 9600 8165
12094 3840 3173
12095 9176 1246
12096 2142 8282
12097 3534 5267
12098 9553 5377
12099 9703 2526
12100 9321 2373
12101 1069 4780
12102 9578 2052
12103 8921 9970
12104 7064 7641
12105 2162 6386
12106 9746 9357
12107 1095 6880
12108 235  9890
12109 2221 3388
12110 5114 6000
12111 6120 591 
12112 4915 5141
12113 5183 5771
12114 1548 1492
12115 9559 4367
12116 3184 6009
12117 6713 98  
12118 9965 9718
12119 9245 7377
12120 5024 1006
12121 9815 9160
12122 4932 7766
12123 5528 2882
12124 2367 3326
12125 510  5338
12126 8514 8575
12127 9215 112 
12128 7731 7106
12129 5174 2674
12130 8881 7811
12131 4600 2306
12132 475  5278
12133 7006 7621
12134 2085 5077
12135 4787 1247
12136 924  3893
12137 3875 3260
12138 3093 1255
12139 9443 5764
12140 3583 3165
12141 3551 7111
12142 8756 5782
12143 1829 4491
12144 2451 2426
12145 5616 1379
12146 5180 8873
12147 7407 4353
12148 8446 5419
12149 1901 9798
12150 7133 7052
12151 4844 4529
12152 2189 7338
12153 8218 6651
12154 3140 2020
12155 5142 1043
12156 8089 5710
12157 3655 6096
12158 4200 5458
12159 3861 1168
12160 6419 4180
12161 5176 233 
12162 1412 4389
12163 4071 6200
12164 5533 299 
12165 9698 1079
12166 9736 7112
12167 8223 4343
12168 3757 2409
12169 7304 6288
12170 9118 2380
12171 7851 1233
12172 2447 2399
12173 576  4395
12174 9963 7952
12175 9565 1063
12176 2608 7760
12177 692  8854
12178 6357 3139
12179 4345 6112
12180 6719 210 
12181 3388 3888
12182 3651 4838
12183 3084 5392
12184 9595 7039
12185 4892 5959
12186 5901 21  
12187 2163 8158
12188 5051 5269
12189 5321 6120
12190 8401 6103
12191 3389 3792
12192 265  3181
12193 161  7500
12194 3954 5487
12195 4705 648 
12196 37   7482
12197 7452 2625
12198 5655 3693
12199 9702 622 
12200 9742 7312
12201 451  8749
12202 3001 4461
12203 7339 5203
12204 7866 8153
12205 2476 3903
12206 1260 4164
12207 2889 5166
12208 9568 6703
12209 9343 8019
12210 3596 4601
12211 6205 9472
12212 4196 5520
12213 3445 810 
12214 3228 960 
12215 7267 9550
12216 8454 51  
12217 9898 4498
12218 8525 8721
12219 4959 2334
12220 1000 6138
12221 8517 5790
12222 7164 3076
12223 2474 4144
12224 4023 3938
12225 8095 6001
12226 2952 8947
12227 8877 1383
12228 917  3466
12229 42   4931
12230 7911 1754
12231 7998 9134
12232 4411 5582
12233 6829 848 
12234 9402 2601
12235 6550 3347
12236 605  8407
12237 6831 9533
12238 7201 7933
12239 3232 3902
12240 7149 2783
12241 3355 5440
12242 8366 9131
12243 5081 4656
12244 4517 9386
12245 750  9023
12246 1139 8061
12247 8400 700 
12248 7076 8025
12249 3659 4827
12250 7870 8440
12251 7890 1997
12252 1221 2032
12253 3685 8294
12254 5477 1415
12255 5231 2752
12256 2121 6825
12257 9346 7818
12258 4071 4799
12259 7568 3636
12260 9129 5183
12261 5016 267 
12262 5519 6767
12263 6696 6031
12264 6494 3469
12265 4305 1640
12266 6417 5887
12267 4493 4390
12268 2395 3069
12269 4147 1051
12270 167  7812
12271 6184 132 
12272 1003 2896
12273 1055 129 
12274 8615 7072
12275 3171 4975
12276 4919 6611
12277 4002 573 
12278 2826 9547
12279 8076 8288
12280 2118 8779
12281 7888 4015
12282 5532 4973
12283 5444 5204
12284 9029 264 
12285 5203 3774
12286 4970 9537
12287 2069 4819
12288 4184 5874
12289 9697 7500
12290 7013 3957
12291 3183 9703
12292 7702 161 
12293 7256 5098
12294 4736 1052
12295 9328 4332
12296 6563 578 
12297 8252 9695
12298 8791 2877
12299 3445 7070
12300 419  9215
12301 3874 3478
12302 1151 5276
12303 7333 4465
12304 8523 213 
12305 4508 858 
12306 8179 5236
12307 3866 312 
12308 9620 7862
12309 4655 738 
12310 5947 2222
12311 4398 4972
12312 6649 6299
12313 9862 9335
12314 2991 7547
12315 4622 8792
12316 350  8918
12317 8796 2427
12318 2732 8200
12319 5670 7822
12320 837  9022
12321 7214 4639
12322 9700 1295
12323 7644 8416
12324 4271 1295
12325 4695 2823
12326 3182 8509
12327 53   4686
12328 4723 8447
12329 4067 6528
12330 7940 2363
12331 2860 4209
12332 6218 3721
12333 8760 9382
12334 2325 2815
12335 624  5984
12336 6431 2327
12337 6791 9916
12338 5730 4164
12339 3600 614 
12340 2985 2966
12341 7235 1278
12342 6154 8850
12343 3576 2593
12344 7405 5726
12345 2909 4622
12346 5528 8842
12347 7917 919 
12348 9819 2162
12349 9276 5852
12350 6410 3919
12351 719  6827
12352 3946 2761
12353 6887 4265
12354 4717 1942
12355 3193 5118
12356 9657 9567
12357 7963 5465
12358 3450 3519
12359 5911 9646
12360 835  8146
12361 3242 9206
12362 9357 2928
12363 5450 5938
12364 4851 5154
12365 7650 1922
12366 7950 7124
12367 4620 3511
12368 3862 7201
12369 3510 4631
12370 3038 7360
12371 4112 3525
12372 3507 3731
12373 9467 7565
12374 2181 7892
12375 5135 7110
12376 3079 831 
12377 8174 6804
12378 3955 8607
12379 9512 6036
12380 8849 3673
12381 1689 1941
12382 7313 7857
12383 9455 2594
12384 932  557 
12385 5756 4686
12386 3152 5263
12387 2544 3636
12388 2295 630 
12389 7299 4629
12390 3941 751 
12391 4792 7348
12392 6687 2140
12393 5957 1252
12394 3748 4188
12395 2506 6374
12396 4021 1576
12397 3541 1982
12398 4082 4574
12399 9237 7751
12400 9725 7259
12401 717  2465
12402 590  2193
12403 7262 7650
12404 4038 1944
12405 5627 3691
12406 5491 2804
12407 7507 2958
12408 1183 4310
12409 3371 7194
12410 9876 6044
12411 7244 1259
12412 2374 4118
12413 1862 9691
12414 5874 5101
12415 5552 6846
12416 8071 7122
12417 5702 8280
12418 7207 6335
12419 2036 7314
12420 1028 6815
12421 5165 6422
12422 2374 3271
12423 6430 5120
12424 821  1088
12425 831  4371
12426 1814 9195
12427 9195 687 
12428 6857 813 
12429 8799 5170
12430 3128 5712
12431 51   7970
12432 8893 7194
12433 8017 7439
12434 8344 6820
12435 5892 4634
12436 657  1571
12437 5137 7670
12438 5231 718 
12439 5305 5762
12440 3574 8447
12441 7666 576 
12442 7481 2320
12443 7333 3871
12444 2926 2853
12445 5771 2537
12446 7813 8857
12447 2271 5237
12448 2798 3639
12449 4629 9469
12450 265  8937
12451 9255 9458
12452 4167 9545
12453 5584 7496
12454 5494 5071
12455 8539 3916
12456 4436 7018
12457 1594 229 
12458 7535 6514
12459 3040 5404
12460 2765 4705
12461 1160 1898
12462 5446 8277
12463 6951 2226
12464 990  6051
12465 6740 8895
12466 6284 5932
12467 5708 6885
12468 6444 6175
12469 7087 5447
12470 8162 3833
12471 6907 5195
12472 9573 5284
12473 4345 6699
12474 8744 1527
12475 7357 8617
12476 9477 2449
12477 2447 5344
12478 8635 8032
12479 2675 6353
12480 2330 3388
12481 2549 8419
12482 2846 988 
12483 1089 5478
12484 175  3016
12485 5617 4880
12486 5021 1541
12487 6417 965 
12488 7089 4934
12489 8080 6501
12490 979  902 
12491 9471 740 
12492 1359 9788
12493 3072 5346
12494 6517 6713
12495 8958 6988
12496 98   3805
12497 1653 7855
12498 1846 5655
12499 2765 4366
12500 943  9162
12501 6094 2307
12502 35   3141
12503 3356 7985
12504 9582 1808
12505 2362 7617
12506 36   1714
12507 2387 9531
12508 5467 7210
12509 6190 8162
12510 3892 9201
12511 5089 8781
12512 9020 9998
12513 785  3927
12514 3169 3390
12515 6031 1549
12516 811  6792
12517 7731 2331
12518 3746 8033
12519 1130 3150
12520 2507 1396
12521 3440 2502
12522 9625 2118
12523 9153 8292
12524 4189 6030
12525 2858 2780
12526 9505 821 
12527 1353 3064
12528 2422 1401
12529 4258 9350
12530 3196 3204
12531 7916 1248
12532 7688 8117
12533 462  3128
12534 5550 5952
12535 3258 70  
12536 8249 1392
12537 6399 8122
12538 3125 6787
12539 985  1627
12540 3984 1327
12541 7101 6661
12542 1717 6324
12543 8644 7474
12544 7969 6947
12545 6801 3475
12546 7522 5854
12547 9715 1071
12548 3375 3965
12549 8398 7214
12550 8292 8725
12551 9786 9197
12552 6544 4722
12553 9970 6391
12554 8275 5032
12555 4969 8480
12556 8968 9506
12557 5493 6843
12558 8189 1151
12559 1398 5444
12560 1494 575 
12561 8535 6780
12562 555  351 
12563 2846 9513
12564 6520 5968
12565 4993 1701
12566 6651 4551
12567 36   7384
12568 1827 322 
12569 7401 1723
12570 7940 1838
12571 3261 4854
12572 9950 9413
12573 5261 1238
12574 3125 8565
12575 5396 6078
12576 5342 2122
12577 2986 3578
12578 7627 8837
12579 2724 8018
12580 4873 9547
12581 8647 4040
12582 7053 5687
12583 7527 4032
12584 1526 9508
12585 8210 3760
12586 8723 2454
12587 7843 6978
12588 9812 3660
12589 3229 6303
12590 5000 7519
12591 102  3589
12592 2255 909 
12593 101  5514
12594 1403 9806
12595 1966 8166
12596 8778 7732
12597 1685 6949
12598 5656 8545
12599 9054 5176
12600 7609 6140
12601 7593 7559
12602 7031 2563
12603 6716 5569
12604 5374 7534
12605 8699 9903
12606 9634 5899
12607 302  4187
12608 473  3547
12609 8114 5453
12610 3627 7153
12611 3189 5632
12612 1785 7610
12613 4162 9472
12614 2955 2206
12615 6876 848 
12616 8742 2625
12617 9902 3801
12618 5865 1628
12619 8364 2559
12620 208  6080
12621 151  8249
12622 4164 7082
12623 2702 9137
12624 3821 5283
12625 132  3744
12626 2887 4137
12627 1995 9886
12628 980  6728
12629 31   1451
12630 6421 1544
12631 192  2769
12632 9926 4569
12633 369  6532
12634 7759 2122
12635 5868 1694
12636 9884 2712
12637 6720 6209
12638 6925 2371
12639 8570 8471
12640 9080 2361
12641 1446 5959
12642 5114 1889
12643 3538 1378
12644 9642 3923
12645 7252 395 
12646 2792 8019
12647 7742 2886
12648 7033 2928
12649 8334 8178
12650 2862 2066
12651 6880 9132
12652 5457 8098
12653 3741 5665
12654 3846 1368
12655 4342 725 
12656 626  5720
12657 7058 7749
12658 9689 9891
12659 7726 8119
12660 2521 1322
12661 2550 7054
12662 4002 8023
12663 1728 9513
12664 5193 8805
12665 964  4191
12666 5046 8149
12667 7873 6815
12668 7454 8314
12669 753  6889
12670 3736 4379
12671 6434 1824
12672 1356 407 
12673 2265 5859
12674 8441 5379
12675 21   3416
12676 2132 1229
12677 8060 4674
12678 9348 3960
12679 4507 2039
12680 8541 6687
12681 714  2393
12682 4755 970 
12683 9722 262 
12684 1898 1027
12685 5897 4335
12686 2866 2671
12687 2821 9297
12688 844  775 
12689 6087 1740
12690 2879 1699
12691 878  8745
12692 5285 7856
12693 6648 8379
12694 4295 7123
12695 2716 2612
12696 5130 5151
12697 4503 3551
12698 7720 4855
12699 8343 305 
12700 5484 7571
12701 9005 2205
12702 519  49  
12703 8353 4797
12704 297  6521
12705 6178 9395
12706 7802 7144
12707 8256 2443
12708 4566 6905
12709 4552 4076
12710 6546 1178
12711 256  5392
12712 2455 8403
12713 288  5462
12714 4141 7600
12715 7160 426 
12716 4156 9266
12717 1813 4352
12718 7922 7532
12719 1765 7781
12720 4769 9751
12721 975  4503
12722 1371 5805
12723 1241 973 
12724 5758 4961
12725 1153 3308
12726 6535 9197
12727 4623 6005
12728 5334 5892
12729 9604 5749
12730 386  7256
12731 7439 2067
12732 7019 8006
12733 4788 3319
12734 7998 9525
12735 3189 3522
12736 1739 3869
12737 7132 5826
12738 2480 4539
12739 8653 2578
12740 6379 3416
12741 4930 7603
12742 8366 9901
12743 1065 8593
12744 1784 1888
12745 799  2355
12746 566  7770
12747 5639 9785
12748 7173 435 
12749 5182 1503
12750 6223 9511
12751 622  2357
12752 1657 6536
12753 5165 3007
12754 9368 4327
12755 3102 2558
12756 9371 9236
12757 6987 1631
12758 9823 5518
12759 9876 6271
12760 344  2543
12761 4795 752 
12762 145  8313
12763 1161 2918
12764 4027 6268
12765 532  6745
12766 1187 7806
12767 4016 7245
12768 349  8347
12769 6786 7346
12770 1235 8016
12771 2279 2267
12772 9875 3556
12773 5648 7681
12774 6413 9073
12775 4025 9691
12776 6217 651 
12777 1886 3769
12778 9143 6957
12779 4371 3764
12780 1386 6308
12781 8577 9303
12782 7685 7668
12783 6304 8229
12784 8941 2443
12785 5601 9250
12786 8699 9623
12787 3348 8240
12788 6693 1355
12789 8010 3282
12790 4923 8871
12791 5304 5367
12792 4281 5973
12793 8298 8182
12794 8079 5553
12795 853  661 
12796 3229 426 
12797 4224 7787
12798 5459 8759
12799 2108 819 
12800 5493 8988
12801 4512 5004
12802 8104 1448
12803 6802 4769
12804 1571 2198
12805 7579 5934
12806 9384 5313
12807 6736 9128
12808 9639 5892
12809 8523 5492
12810 4018 8594
12811 8546 3023
12812 9608 8379
12813 7287 1741
12814 8061 8327
12815 443  3250
12816 3007 593 
12817 1938 777 
12818 6863 4078
12819 7092 752 
12820 7627 845 
12821 1406 7457
12822 4310 9954
12823 8366 420 
12824 7877 3341
12825 5971 6104
12826 5646 8108
12827 1561 9815
12828 5832 4737
12829 4745 3036
12830 3404 3608
12831 7259 1808
12832 2588 1825
12833 6267 1214
12834 2472 2107
12835 9540 9533
12836 9358 9564
12837 404  4663
12838 4855 9669
12839 1262 1669
12840 7808 4845
12841 4569 7244
12842 3388 5608
12843 2370 1133
12844 3681 3143
12845 7315 1236
12846 3517 4945
12847 3888 4683
12848 8739 8192
12849 4875 6856
12850 6604 5305
12851 7112 8479
12852 5965 3867
12853 6283 4564
12854 7371 4974
12855 651  4944
12856 2293 3225
12857 1627 8597
12858 9234 1637
12859 4122 1884
12860 150  4691
12861 7209 2584
12862 2524 4295
12863 9825 6521
12864 2605 355 
12865 8984 603 
12866 1373 2070
12867 3993 4032
12868 7149 8756
12869 6819 1690
12870 203  4076
12871 6680 7763
12872 4634 8500
12873 1937 7413
12874 9657 4014
12875 9740 5067
12876 7254 925 
12877 7296 9310
12878 4536 5247
12879 5626 4148
12880 6044 4060
12881 3495 6425
12882 3731 2095
12883 8349 7970
12884 7702 2632
12885 7538 4958
12886 6810 2828
12887 9849 7068
12888 1250 1619
12889 7020 8686
12890 1514 5297
12891 7767 7190
12892 6785 6803
12893 921  5262
12894 227  4678
12895 1300 8083
12896 3169 1378
12897 264  3191
12898 8142 1508
12899 5015 5641
12900 4946 4218
12901 3209 4759
12902 475  7390
12903 6241 3068
12904 999  5846
12905 4488 101 
12906 5275 8125
12907 3583 776 
12908 7904 2484
12909 4147 5873
12910 6904 6127
12911 7553 8207
12912 1575 1003
12913 5734 9521
12914 2325 2613
12915 85   157 
12916 4106 8782
12917 1800 8989
12918 9160 6162
12919 7454 5375
12920 9759 9598
12921 7112 4825
12922 4243 2844
12923 3077 4204
12924 1658 2857
12925 342  8285
12926 6741 9931
12927 4927 5855
12928 4328 3407
12929 3000 2398
12930 6612 7551
12931 4881 344 
12932 4652 9750
12933 2635 7978
12934 1068 4429
12935 4431 6751
12936 1354 6878
12937 8619 4164
12938 1351 4762
12939 1986 3839
12940 7184 3196
12941 104  3155
12942 615  3487
12943 4742 7212
12944 6747 2140
12945 6390 8759
12946 3079 769 
12947 7944 8234
12948 7598 8559
12949 4200 9722
12950 199  3502
12951 3472 6953
12952 845  8934
12953 1548 946 
12954 3558 6725
12955 8094 3885
12956 1028 8153
12957 5296 3628
12958 363  5468
12959 8584 8446
12960 1802 150 
12961 2909 9535
12962 3727 2120
12963 7466 4957
12964 8199 2070
12965 9212 9068
12966 226  1001
12967 9330 5058
12968 6234 4355
12969 5125 7382
12970 6922 130 
12971 6895 4667
12972 6788 1775
12973 201  2675
12974 6002 9377
12975 5824 9275
12976 718  4174
12977 1155 186 
12978 3014 2682
12979 5663 4678
12980 3613 9024
12981 86   7748
12982 6052 4993
12983 6863 3537
12984 2160 9094
12985 4839 4909
12986 8795 3245
12987 2146 1977
12988 5640 1478
12989 6134 7777
12990 3448 2891
12991 6006 1571
12992 840  3865
12993 4228 7048
12994 4015 8867
12995 582  8042
12996 617  9438
12997 6034 7721
12998 4539 7906
12999 5485 4270
13000 4523 7682
13001 7148 6681
13002 6203 5453
13003 1234 2867
13004 504  9783
13005 4140 3037
13006 6116 5436
13007 9992 5312
13008 4856 1071
13009 858  9983
13010 1277 9050
13011 9327 2960
13012 1134 9021
13013 4540 6181
13014 5050 5079
13015 7103 4645
13016 8213 5317
13017 5498 8305
13018 4059 2760
13019 1312 4894
13020 5749 1165
13021 3848 8876
13022 2641 9039
13023 9413 5673
13024 8361 928 
13025 4141 6170
13026 9135 3936
13027 5783 4354
13028 1938 5319
13029 5374 1980
13030 1623 3630
13031 7311 7016
13032 3554 1425
13033 981  3001
13034 485  6922
13035 4920 2834
13036 3717 1266
13037 1311 4622
13038 4982 6607
13039 4083 6799
13040 4781 6613
13041 8221 4208
13042 7867 2176
13043 1625 413 
13044 3702 6402
13045 106  2417
13046 1041 2528
13047 1362 368 
13048 5818 3435
13049 7018 7205
13050 2932 3640
13051 6771 871 
13052 5426 6951
13053 4780 5   
13054 2425 8374
13055 1628 8390
13056 8701 4752
13057 29   5331
13058 8872 9643
13059 356  5007
13060 85   580 
13061 6461 9560
13062 5021 15  
13063 2551 7428
13064 7188 4759
13065 4979 3773
13066 9061 6905
13067 349  1164
13068 7714 1519
13069 970  6528
13070 3248 2022
13071 3632 4101
13072 5991 5857
13073 8300 4288
13074 3951 8441
13075 9740 6405
13076 1016 4494
13077 3888 6714
13078 8998 4175
13079 4959 10  
13080 834  9834
13081 7701 8197
13082 4142 8660
13083 9364 4868
13084 8095 454 
13085 1141 3369
13086 2544 4251
13087 2564 3532
13088 8158 4721
13089 8977 1594
13090 1301 9670
13091 57   9899
13092 4348 3876
13093 6907 5262
13094 6774 8367
13095 7151 5468
13096 7625 7184
13097 5710 2703
13098 8293 6524
13099 2699 6547
13100 5157 7550
13101 9695 6044
13102 3571 156 
13103 673  6103
13104 932  392 
13105 7617 325 
13106 3145 5732
13107 4950 1023
13108 6653 8592
13109 9386 268 
13110 3014 8315
13111 521  4102
13112 5250 6824
13113 3634 2670
13114 2725 306 
13115 426  3797
13116 9888 2640
13117 4352 7620
13118 2008 7946
13119 967  2914
13120 1016 3933
13121 7037 4042
13122 9359 6298
13123 2107 3197
13124 9603 5510
13125 1570 7522
13126 3018 960 
13127 2018 7569
13128 8966 3950
13129 6368 7381
13130 555  2296
13131 3443 9480
13132 6089 8539
13133 2235 180 
13134 6856 2986
13135 5171 4741
13136 157  3363
13137 2551 3308
13138 6490 2739
13139 5067 4236
13140 4231 8680
13141 6378 2469
13142 8492 1248
13143 2922 6570
13144 8031 9804
13145 1862 7195
13146 779  8101
13147 6276 100 
13148 4801 8019
13149 3747 1641
13150 6477 8105
13151 4647 6571
13152 761  6775
13153 975  5627
13154 6644 9516
13155 8266 2342
13156 5717 2923
13157 7381 9839
13158 6422 279 
13159 1334 1649
13160 5334 7088
13161 6788 1511
13162 8246 8457
13163 7204 7543
13164 6535 6026
13165 3809 6204
13166 1690 8597
13167 1537 3864
13168 6239 4136
13169 4781 6787
13170 8174 6526
13171 6042 2462
13172 9792 394 
13173 8933 4032
13174 4691 1843
13175 5500 9916
13176 9432 9775
13177 4678 6754
13178 7122 8892
13179 8607 4136
13180 1020 3568
13181 4434 474 
13182 3101 5102
13183 8502 8032
13184 2823 960 
13185 8386 1685
13186 2122 9170
13187 4415 6587
13188 4675 7314
13189 3000 9944
13190 5622 7015
13191 6106 2224
13192 2821 5096
13193 3628 5184
13194 5325 2681
13195 7277 4635
13196 4680 6750
13197 9692 3073
13198 4332 2334
13199 8300 4949
13200 6794 1758
13201 4103 1668
13202 4213 4586
13203 2991 7431
13204 2816 1753
13205 1070 7321
13206 4709 307 
13207 1639 5949
13208 1457 5317
13209 5984 2938
13210 7953 7068
13211 4309 1890
13212 2538 975 
13213 5771 352 
13214 675  6640
13215 7694 2608
13216 2810 5690
13217 2835 5634
13218 6382 8769
13219 1846 263 
13220 8021 1867
13221 6676 8136
13222 9219 8014
13223 2962 7895
13224 5765 1636
13225 3298 6131
13226 9211 6203
13227 2274 8190
13228 5751 6959
13229 3300 4344
13230 5734 9583
13231 3997 583 
13232 6256 643 
13233 3884 3475
13234 431  9116
13235 3266 8022
13236 1413 9760
13237 7511 5656
13238 7414 5016
13239 9104 7811
13240 2349 8156
13241 388  6764
13242 7551 7097
13243 9918 8452
13244 4728 4659
13245 470  6468
13246 9562 144 
13247 4165 7388
13248 4832 2856
13249 1254 8872
13250 5113 2865
13251 4761 2085
13252 434  3352
13253 748  463 
13254 9691 4274
13255 3303 2983
13256 6582 8453
13257 2219 5216
13258 5213 8848
13259 780  9474
13260 3442 1984
13261 6536 3757
13262 7811 2764
13263 6583 3452
13264 462  5240
13265 4086 6821
13266 4285 5750
13267 9111 7212
13268 7568 9454
13269 3187 320 
13270 71   7357
13271 2000 5707
13272 2400 3738
13273 7081 52  
13274 444  701 
13275 740  4603
13276 3561 5596
13277 429  4871
13278 4364 4456
13279 4329 5229
13280 5723 8314
13281 5912 1894
13282 6652 4277
13283 9836 9865
13284 833  4058
13285 9559 8629
13286 1949 6679
13287 1462 5059
13288 2347 1066
13289 5687 2321
13290 1171 229 
13291 1052 4424
13292 5780 1532
13293 4051 6071
13294 8491 9936
13295 9462 8940
13296 9396 5794
13297 7763 113 
13298 3933 7617
13299 2844 4513
13300 4121 1684
13301 8953 5951
13302 7564 621 
13303 4115 2586
13304 9406 7113
13305 8647 18  
13306 116  2507
13307 3548 7361
13308 1496 2955
13309 1462 3003
13310 2908 8265
13311 2679 3841
13312 7962 5397
13313 3961 555 
13314 8373 9077
13315 961  5786
13316 180  5826
13317 3137 7594
13318 6339 2788
13319 5034 2335
13320 3388 9744
13321 3069 4223
13322 5538 875 
13323 7374 8998
13324 7662 2171
13325 9671 5395
13326 6326 4220
13327 4093 3825
13328 631  1822
13329 5926 6024
13330 6532 8210
13331 8142 6823
13332 5302 1742
13333 4265 6052
13334 4892 4890
13335 83   3893
13336 8463 7675
13337 6    3945
13338 3343 3111
13339 6842 528 
13340 6592 4456
13341 5858 996 
13342 4425 5640
13343 6862 8973
13344 5926 5716
13345 7012 1495
13346 5981 5015
13347 209  9144
13348 8676 9017
13349 125  6917
13350 9332 1755
13351 1011 8405
13352 6142 4762
13353 2547 5468
13354 4557 1177
13355 9562 5244
13356 9861 4538
13357 6344 1874
13358 4996 6304
13359 325  7497
13360 8772 7017
13361 8400 4   
13362 4450 1569
13363 7376 1939
13364 7214 9846
13365 2654 1505
13366 5325 1071
13367 373  8002
13368 9211 9485
13369 4065 9970
13370 9076 1968
13371 2434 9537
13372 3748 8560
13373 145  2079
13374 5026 9142
13375 8840 9576
13376 9184 9399
13377 8034 8698
13378 6673 9957
13379 5754 448 
13380 1358 6471
13381 9434 2172
13382 9280 8203
13383 9973 7610
13384 990  3598
13385 8128 8182
13386 6425 8235
13387 1438 3157
13388 2109 7864
13389 8003 8428
13390 2810 8122
13391 1728 391 
13392 6764 2495
13393 7278 5953
13394 4530 4970
13395 1347 8749
13396 9684 6881
13397 7510 7047
13398 9691 279 
13399 4525 3386
13400 1074 9947
13401 3821 9082
13402 6448 3457
13403 1757 4111
13404 3908 1121
13405 9456 5031
13406 3979 1302
13407 4141 1403
13408 9888 3335
13409 5569 3975
13410 3501 3031
13411 3582 46  
13412 1577 9365
13413 484  9599
13414 7460 5342
13415 4007 3342
13416 5392 9605
13417 1823 868 
13418 9957 2385
13419 9040 830 
13420 3279 3548
13421 6201 5280
13422 2746 414 
13423 9751 7835
13424 6406 4346
13425 563  8530
13426 8115 3123
13427 1019 3528
13428 5799 5558
13429 2916 6644
13430 9754 4955
13431 6777 9252
13432 8343 5245
13433 7262 3230
13434 396  2857
13435 4585 2977
13436 8459 2185
13437 6027 1953
13438 3879 3813
13439 9327 9533
13440 6097 6672
13441 2432 2507
13442 5791 130 
13443 7035 7647
13444 1270 9953
13445 8926 4698
13446 3910 5650
13447 8730 8161
13448 7881 3604
13449 4546 2625
13450 8615 7370
13451 3094 8316
13452 4899 6561
13453 18   2441
13454 706  6927
13455 9115 8034
13456 1338 3123
13457 7031 3378
13458 2921 4891
13459 6147 725 
13460 9959 4868
13461 1070 4225
13462 237  8157
13463 8997 4297
13464 4984 2493
13465 4586 5393
13466 7299 638 
13467 4328 3209
13468 3385 6381
13469 3908 6178
13470 8225 1792
13471 9735 136 
13472 9093 6657
13473 4268 5015
13474 8343 5938
13475 6681 4682
13476 7292 5361
13477 2327 3519
13478 9897 6990
13479 9946 93  
13480 3928 4805
13481 5274 9186
13482 3650 855 
13483 9089 4159
13484 9123 2863
13485 7014 8080
13486 7340 1480
13487 5503 9419
13488 4560 8887
13489 3927 8521
13490 3125 2462
13491 7657 8902
13492 3334 8293
13493 9056 315 
13494 3267 729 
13495 7150 3178
13496 7326 4122
13497 9373 6207
13498 8544 4010
13499 6853 5313
13500 3053 6804
13501 7453 1067
13502 7763 7096
13503 5078 7204
13504 7529 8464
13505 9629 2863
13506 6815 5290
13507 7579 9178
13508 6851 2882
13509 7892 7351
13510 5630 5556
13511 1375 1818
13512 2069 4773
13513 3695 8146
13514 5239 172 
13515 7474 1940
13516 1656 383 
13517 4416 156 
13518 8990 5766
13519 1767 1193
13520 739  2469
13521 441  9099
13522 1595 4375
13523 6273 89  
13524 186  8054
13525 5401 4411
13526 7554 2959
13527 851  8151
13528 1171 8712
13529 6012 6174
13530 1717 8695
13531 7323 1084
13532 2231 4903
13533 72   7595
13534 4115 4337
13535 2099 5969
13536 3343 9052
13537 1085 5698
13538 9973 8753
13539 2447 4972
13540 3703 5011
13541 3774 6223
13542 6081 4466
13543 9381 7193
13544 321  6473
13545 5639 8554
13546 2948 6241
13547 1493 2258
13548 190  2605
13549 26   5209
13550 5790 1116
13551 4285 8620
13552 3744 9162
13553 296  571 
13554 2019 6040
13555 9245 5373
13556 2112 2287
13557 3783 667 
13558 2434 1397
13559 1487 367 
13560 2216 3289
13561 9296 8541
13562 6235 3949
13563 5332 3154
13564 1503 7102
13565 3999 8117
13566 4778 2691
13567 5682 3669
13568 8078 5020
13569 9883 874 
13570 4480 3548
13571 1761 6265
13572 5186 5534
13573 6420 350 
13574 9010 2345
13575 6865 6481
13576 8317 5782
13577 4413 3660
13578 5406 3024
13579 5103 841 
13580 3018 672 
13581 4997 2012
13582 8875 9412
13583 4868 7107
13584 6252 6901
13585 2733 1005
13586 1558 3429
13587 9916 9377
13588 9594 2186
13589 30   4761
13590 5325 8906
13591 7576 7007
13592 5217 3799
13593 5027 8734
13594 7936 2379
13595 679  7594
13596 2867 2829
13597 2344 9839
13598 4591 2327
13599 8962 9399
13600 6459 1733
13601 5510 716 
13602 394  3901
13603 4595 1601
13604 4430 6634
13605 1354 4715
13606 7243 5090
13607 3448 5925
13608 4807 4281
13609 9638 4369
13610 5896 9359
13611 5474 1370
13612 6674 9807
13613 2525 4534
13614 8985 7981
13615 479  5645
13616 7739 9700
13617 509  2053
13618 1352 7258
13619 6994 8259
13620 3383 1247
13621 2850 3615
13622 5588 8116
13623 3099 9890
13624 3930 7341
13625 3726 1974
13626 6122 6335
13627 1121 6581
13628 3847 4245
13629 8725 3392
13630 9434 1306
13631 4100 8740
13632 8834 992 
13633 2906 6053
13634 961  5416
13635 2503 6405
13636 7526 4983
13637 3758 4002
13638 4810 9866
13639 1673 3112
13640 6354 5262
13641 5610 3375
13642 5468 2700
13643 8592 9714
13644 8019 2494
13645 2742 7299
13646 8252 7824
13647 5198 4461
13648 1464 6212
13649 4986 4906
13650 5771 2040
13651 6305 9410
13652 3994 7064
13653 6362 244 
13654 7914 8071
13655 5143 9181
13656 5390 9114
13657 3083 52  
13658 3134 3949
13659 5599 9244
13660 7233 2285
13661 6972 8328
13662 6624 1329
13663 8496 7687
13664 129  9809
13665 8763 3300
13666 4621 5704
13667 8785 5745
13668 4303 5869
13669 725  1527
13670 6458 1270
13671 7682 9834
13672 2769 9270
13673 5631 1716
13674 1160 2630
13675 5419 1804
13676 239  7436
13677 5857 3788
13678 9182 3651
13679 5061 1831
13680 4372 3424
13681 6462 3292
13682 3913 4240
13683 5791 7097
13684 8066 9861
13685 2859 5008
13686 8061 4093
13687 6480 6299
13688 5258 8506
13689 2617 3362
13690 9855 5123
13691 7345 5230
13692 2538 4969
13693 8423 4323
13694 4898 1638
13695 7650 979 
13696 7161 1670
13697 9344 7348
13698 6992 8264
13699 5405 3167
13700 5608 3157
13701 1059 4134
13702 7125 1434
13703 9412 3461
13704 8173 7652
13705 4979 9250
13706 6947 7015
13707 9970 7371
13708 1346 5503
13709 3617 8558
13710 4970 5466
13711 2607 5658
13712 5754 406 
13713 3725 5338
13714 1529 5005
13715 8374 745 
13716 4486 450 
13717 8543 3126
13718 8087 4281
13719 8872 6382
13720 2709 8276
13721 803  8182
13722 8604 3221
13723 9243 4682
13724 7484 2861
13725 1097 5426
13726 3163 2601
13727 6734 1096
13728 2654 5613
13729 8951 1460
13730 8598 178 
13731 8720 500 
13732 1768 9402
13733 2274 8762
13734 9183 1021
13735 5938 1540
13736 5590 1011
13737 5759 4340
13738 3448 4566
13739 4301 3754
13740 3392 9975
13741 3322 1947
13742 6776 6619
13743 1588 8011
13744 8603 4007
13745 8048 9883
13746 5001 177 
13747 9023 2275
13748 8761 5603
13749 1611 9799
13750 3680 6299
13751 9969 2695
13752 3310 4290
13753 7382 5642
13754 1670 6800
13755 1332 7116
13756 9044 9525
13757 4116 3874
13758 3848 9035
13759 8013 3901
13760 6624 7727
13761 3233 6512
13762 3384 6241
13763 5531 2486
13764 5770 8329
13765 3076 3722
13766 3268 6374
13767 5094 3658
13768 2967 1176
13769 4450 5892
13770 5408 5301
13771 4496 2148
13772 2123 2165
13773 9244 2355
13774 7487 8819
13775 6959 383 
13776 2641 6657
13777 8609 7304
13778 8086 9474
13779 2390 5816
13780 6215 9613
13781 4465 2049
13782 8186 3147
13783 7421 9677
13784 5788 6489
13785 8529 1875
13786 8999 8743
13787 7824 9275
13788 9342 9413
13789 9856 2601
13790 8697 9397
13791 9341 4613
13792 5309 893 
13793 6793 1505
13794 9977 5586
13795 315  9732
13796 5232 9711
13797 3141 8130
13798 3958 9635
13799 5078 2809
13800 7099 6901
13801 9958 5441
13802 2155 451 
13803 6307 231 
13804 7949 7151
13805 1087 2842
13806 1754 8482
13807 7770 8958
13808 6068 6630
13809 2447 8338
13810 9760 7140
13811 9120 5192
13812 3188 7249
13813 1037 3050
13814 2105 9458
13815 1612 3642
13816 2159 5382
13817 3575 2560
13818 8461 2270
13819 4337 3515
13820 4943 6737
13821 761  287 
13822 5961 5013
13823 7887 7423
13824 5852 7158
13825 6950 2141
13826 7671 9474
13827 2255 9572
13828 5038 2056
13829 6842 6936
13830 3039 6151
13831 8001 6135
13832 4626 2693
13833 2718 9277
13834 6820 4131
13835 7550 1092
13836 9617 2491
13837 7433 5511
13838 2496 1728
13839 7553 5783
13840 8507 6994
13841 9244 4969
13842 6184 8497
13843 9567 3828
13844 125  6514
13845 4943 4212
13846 1165 506 
13847 6140 286 
13848 2215 7194
13849 332  8729
13850 8095 5406
13851 3061 9612
13852 1726 7175
13853 6502 2021
13854 518  14  
13855 7593 794 
13856 7052 4001
13857 6539 9949
13858 5293 6461
13859 1637 3861
13860 7062 166 
13861 6466 4121
13862 9637 1047
13863 2649 1905
13864 2999 8706
13865 5094 7870
13866 3907 9555
13867 1474 2937
13868 7228 5043
13869 1498 2523
13870 7202 5611
13871 3282 2269
13872 744  7993
13873 6260 1306
13874 7444 5498
13875 1679 7437
13876 8225 6222
13877 3848 3143
13878 7689 6598
13879 3404 5923
13880 8213 890 
13881 4889 6097
13882 3992 341 
13883 8901 5610
13884 3388 2697
13885 8226 9536
13886 2125 2111
13887 2492 1286
13888 8158 4123
13889 5601 1813
13890 7147 703 
13891 3053 7163
13892 4871 4665
13893 9603 3336
13894 2015 8611
13895 2462 6465
13896 5691 5326
13897 794  5821
13898 5282 6366
13899 6795 1052
13900 9646 7939
13901 3008 8189
13902 5321 7385
13903 5080 9084
13904 498  5210
13905 6227 440 
13906 6672 347 
13907 1910 8882
13908 1585 9475
13909 357  5024
13910 4443 8381
13911 5603 8965
13912 7622 2372
13913 5049 2283
13914 2257 5865
13915 475  754 
13916 1508 196 
13917 9274 2056
13918 6630 6541
13919 2826 6039
13920 4973 2485
13921 712  3938
13922 7457 3436
13923 7101 2420
13924 1114 3414
13925 552  9194
13926 7286 1427
13927 6854 2132
13928 6464 4107
13929 9471 9081
13930 6090 8360
13931 2868 9173
13932 9001 4195
13933 4160 6418
13934 7558 4084
13935 6619 2763
13936 9455 4754
13937 8146 7617
13938 10   6065
13939 7460 5229
13940 4769 3902
13941 8964 1874
13942 6864 9628
13943 564  6698
13944 2865 7926
13945 8485 5562
13946 3853 7059
13947 8307 4896
13948 9807 1129
13949 6085 9473
13950 4962 696 
13951 9159 29  
13952 4997 2704
13953 482  8425
13954 4272 123 
13955 513  5158
13956 5318 2296
13957 2742 735 
13958 267  499 
13959 9338 2478
13960 5582 7397
13961 5299 2269
13962 7005 744 
13963 7545 6386
13964 1642 6707
13965 1597 2528
13966 2849 3635
13967 7482 9835
13968 9450 8124
13969 374  8948
13970 1728 4939
13971 7028 3973
13972 616  6564
13973 5764 5681
13974 4576 781 
13975 6091 829 
13976 8463 3912
13977 1625 2711
13978 2227 836 
13979 655  6662
13980 842  8782
13981 5395 6913
13982 776  4600
13983 641  8310
13984 2499 7924
13985 6584 581 
13986 5617 3930
13987 9330 5323
13988 2102 5918
13989 6779 3451
13990 4396 711 
13991 2949 1080
13992 4716 504 
13993 7234 2725
13994 9600 8803
13995 7589 826 
13996 2131 6506
13997 7677 2693
13998 1970 7642
13999 6585 2285
14000 2326 2645
14001 385  4598
14002 197  9957
14003 6518 8685
14004 2851 4298
14005 4657 1775
14006 8796 8886
14007 2230 7955
14008 8134 4770
14009 2133 7057
14010 139  4849
14011 408  1906
14012 7461 2949
14013 4695 2673
14014 9190 1866
14015 8169 1590
14016 6449 8310
14017 5115 670 
14018 1155 4378
14019 8735 1930
14020 3993 8768
14021 8690 6726
14022 7511 3093
14023 6430 6512
14024 1194 1526
14025 807  9064
14026 722  2763
14027 9325 7851
14028 6810 7855
14029 1187 8460
14030 4429 2840
14031 5819 2739
14032 3548 3302
14033 9144 8703
14034 474  1871
14035 8122 3444
14036 10000 5218
14037 4147 5733
14038 2727 804 
14039 2252 9215
14040 3454 9872
14041 4886 608 
14042 7466 4962
14043 7183 1302
14044 2824 7096
14045 3217 260 
14046 6019 1285
14047 759  5322
14048 8017 6203
14049 3947 941 
14050 9226 4063
14051 389  6462
14052 4363 2237
14053 5430 4009
14054 918  306 
14055 4513 2312
14056 5877 9477
14057 190  5057
14058 9961 9275
14059 7187 1404
14060 4045 1914
14061 8687 6560
14062 1344 1893
14063 3920 9383
14064 1674 4745
14065 8095 8252
14066 810  780 
14067 8923 4486
14068 9054 5023
14069 8207 1522
14070 1651 9888
14071 7243 1939
14072 9060 9661
14073 1697 1877
14074 9717 1922
14075 574  3435
14076 5559 2580
14077 9749 6282
14078 4677 3066
14079 4142 2703
14080 3683 1597
14081 2689 3371
14082 9845 1746
14083 659  747 
14084 8312 7879
14085 4784 5059
14086 1345 1245
14087 7786 7773
14088 4049 3377
14089 7042 4646
14090 9073 3838
14091 2351 8394
14092 4491 6237
14093 6661 5045
14094 2758 3853
14095 5582 4118
14096 2201 5311
14097 797  7138
14098 6488 7732
14099 4071 8942
14100 3139 1078
14101 6200 7727
14102 9848 6670
14103 5203 3202
14104 6392 1784
14105 2346 8311
14106 4557 5940
14107 5384 7536
14108 5121 4280
14109 5854 8122
14110 4949 695 
14111 9545 971 
14112 4974 9487
14113 5418 2349
14114 6361 9817
14115 484  5550
14116 1158 1024
14117 5767 6590
14118 2592 8190
14119 6533 8535
14120 3856 8240
14121 2257 7518
14122 7229 2903
14123 7599 5192
14124 7806 4432
14125 4761 5544
14126 3473 8443
14127 6303 3310
14128 4598 3194
14129 9701 8621
14130 4513 1729
14131 1988 8256
14132 9992 4888
14133 6461 6655
14134 9018 1763
14135 3154 4125
14136 758  9138
14137 8035 7078
14138 3955 1677
14139 321  7640
14140 3632 3843
14141 2260 1958
14142 4595 4119
14143 983  420 
14144 4225 6480
14145 1631 6096
14146 999  1490
14147 1461 7857
14148 2899 9387
14149 477  9925
14150 8935 9161
14151 4082 1645
14152 7990 8696
14153 1539 2432
14154 2155 7446
14155 170  431 
14156 6393 4250
14157 8783 7559
14158 7374 2167
14159 6094 6387
14160 1023 6227
14161 5108 8404
14162 4142 6567
14163 7710 4603
14164 9296 3209
14165 5823 2188
14166 2145 1628
14167 4672 4841
14168 3750 2028
14169 8236 1111
14170 9099 7986
14171 625  5231
14172 8644 8841
14173 2486 8344
14174 9213 1469
14175 3122 8216
14176 782  4434
14177 6042 8392
14178 7698 3273
14179 6248 209 
14180 5662 4568
14181 7193 951 
14182 7412 9370
14183 2847 8198
14184 1109 6767
14185 1371 6106
14186 6667 552 
14187 8275 3089
14188 4858 8380
14189 7765 2472
14190 1155 6622
14191 776  5872
14192 855  1863
14193 4336 2599
14194 2217 967 
14195 3038 2946
14196 1060 8625
14197 9418 9298
14198 13   9446
14199 6688 5055
14200 8217 322 
14201 3372 3081
14202 1321 5273
14203 9481 5536
14204 5060 2662
14205 7057 2411
14206 4617 2295
14207 6626 8867
14208 9965 4008
14209 3868 8173
14210 3617 9098
14211 8576 9155
14212 6420 1228
14213 4390 360 
14214 3227 8367
14215 73   2775
14216 8364 4092
14217 441  8165
14218 4516 8434
14219 5002 8207
14220 3201 6150
14221 1319 4938
14222 9712 6826
14223 3849 4879
14224 5949 521 
14225 7146 3981
14226 1421 879 
14227 4083 1860
14228 4632 8367
14229 2159 7474
14230 6800 2286
14231 2240 488 
14232 3170 5563
14233 2092 2697
14234 7181 1600
14235 6480 8395
14236 2538 6937
14237 9652 6653
14238 4956 9071
14239 330  7732
14240 5546 2170
14241 2103 492 
14242 213  6636
14243 3714 7379
14244 9889 4400
14245 9067 1097
14246 6783 6869
14247 8644 5737
14248 9020 1456
14249 669  7902
14250 3444 2593
14251 7553 5009
14252 7237 4320
14253 1114 6698
14254 782  5698
14255 9596 9049
14256 5724 8081
14257 9710 5810
14258 7386 5580
14259 6475 3711
14260 8610 1185
14261 192  7440
14262 4014 2901
14263 2424 6924
14264 4801 2620
14265 5867 8141
14266 6087 6861
14267 4173 6078
14268 8756 3504
14269 7765 9889
14270 7380 318 
14271 4825 4397
14272 6483 108 
14273 6628 7235
14274 5691 1566
14275 1743 6372
14276 8221 6480
14277 9719 850 
14278 3833 7058
14279 2936 2884
14280 9017 4090
14281 4367 8156
14282 3103 4215
14283 5910 4646
14284 4615 8348
14285 5111 9799
14286 3083 9613
14287 2818 8776
14288 401  8171
14289 1834 8972
14290 4512 3239
14291 1591 4994
14292 5527 5282
14293 2400 2800
14294 5928 6012
14295 422  7290
14296 8548 3742
14297 7580 2712
14298 3858 5258
14299 6709 7630
14300 4263 1715
14301 6521 6050
14302 2758 2121
14303 9951 1256
14304 4159 7559
14305 3225 5260
14306 7864 7904
14307 7898 7788
14308 7367 3584
14309 6218 8504
14310 7457 6099
14311 3144 9693
14312 8801 3014
14313 3075 528 
14314 992  950 
14315 3318 4246
14316 8759 7214
14317 6423 4865
14318 7537 5488
14319 6061 1834
14320 1850 6836
14321 9614 219 
14322 7548 7072
14323 2779 7836
14324 5350 3881
14325 4335 8621
14326 7176 7544
14327 8921 6213
14328 746  7314
14329 2006 841 
14330 9978 7754
14331 6690 1080
14332 7668 2459
14333 834  1320
14334 8037 5863
14335 2201 6969
14336 7406 955 
14337 345  6925
14338 7432 1608
14339 5576 2556
14340 1284 5633
14341 829  904 
14342 8061 7145
14343 5645 3301
14344 395  8663
14345 5009 2167
14346 6535 5910
14347 5030 6027
14348 2939 9939
14349 4064 6465
14350 8676 19  
14351 5888 5214
14352 555  7404
14353 6011 6589
14354 6111 5019
14355 4808 2803
14356 6088 4432
14357 3148 1160
14358 6927 9591
14359 1604 3695
14360 1280 5778
14361 4503 5187
14362 4550 2135
14363 5284 1944
14364 7975 9462
14365 612  8363
14366 5412 1661
14367 8757 4899
14368 4385 8119
14369 9665 7280
14370 7473 2495
14371 1111 8012
14372 1550 7528
14373 6341 1546
14374 9175 5835
14375 7446 4196
14376 8329 3595
14377 9868 6417
14378 6686 9343
14379 6649 8805
14380 9728 7974
14381 9396 8412
14382 3368 8349
14383 326  5656
14384 1762 9369
14385 505  8783
14386 1893 1922
14387 5401 6006
14388 483  5614
14389 2938 6971
14390 6664 802 
14391 865  6971
14392 5209 3246
14393 7862 1269
14394 2280 7723
14395 5456 40  
14396 1425 5462
14397 971  2648
14398 9927 1227
14399 2500 8117
14400 7593 7834
14401 631  5427
14402 2423 2620
14403 2452 9282
14404 2055 1586
14405 7737 3015
14406 8811 4108
14407 3840 8898
14408 2308 2570
14409 1587 1945
14410 1622 2293
14411 1994 4677
14412 8065 2331
14413 5534 7990
14414 8296 2100
14415 939  1147
14416 2572 496 
14417 3192 115 
14418 3957 6223
14419 3513 6662
14420 5501 7991
14421 8699 939 
14422 936  9703
14423 9551 2705
14424 5189 1930
14425 6267 6907
14426 7821 7056
14427 2183 1604
14428 5057 8032
14429 5958 250 
14430 2395 546 
14431 839  7145
14432 9532 2693
14433 166  8676
14434 7624 9803
14435 7538 3878
14436 4326 5105
14437 2199 7832
14438 6177 1782
14439 1243 8078
14440 4197 2379
14441 1011 1690
14442 6458 1161
14443 388  5744
14444 3975 9445
14445 1074 3155
14446 2098 308 
14447 3579 5396
14448 2175 8014
14449 3294 305 
14450 8251 5445
14451 1226 6525
14452 5904 6450
14453 2588 294 
14454 4250 4206
14455 8485 9485
14456 3125 2910
14457 4591 4198
14458 1693 5613
14459 4420 5953
14460 4478 1495
14461 2416 7835
14462 8747 9786
14463 4344 9506
14464 1873 1746
14465 5877 727 
14466 8895 7441
14467 4917 6558
14468 5501 1251
14469 3954 5119
14470 1376 7465
14471 5182 378 
14472 2414 6727
14473 2563 5013
14474 6951 8176
14475 5591 5935
14476 7491 9619
14477 2469 7768
14478 5214 5501
14479 9198 9147
14480 3976 1177
14481 1197 6465
14482 229  4752
14483 3397 1617
14484 5873 5793
14485 7162 261 
14486 8848 7220
14487 6343 86  
14488 8539 2787
14489 77   1813
14490 6913 5772
14491 4387 6836
14492 5163 8535
14493 2867 3136
14494 1725 793 
14495 370  2091
14496 6854 6236
14497 4045 4036
14498 2394 7049
14499 8287 4076
14500 7475 7471
14501 5292 7231
14502 7061 9727
14503 74   7094
14504 4312 6122
14505 4147 531 
14506 9923 1468
14507 4830 5744
14508 5036 6347
14509 4822 9021
14510 7277 3466
14511 5106 9652
14512 5882 3960
14513 7205 6441
14514 6572 5287
14515 9687 9641
14516 4193 8043
14517 1513 7239
14518 2514 7341
14519 4703 9702
14520 8510 3061
14521 158  6359
14522 6715 3859
14523 4119 397 
14524 3869 7920
14525 1772 1377
14526 2815 8837
14527 7561 4560
14528 3799 1248
14529 1300 4360
14530 6357 4140
14531 316  188 
14532 3685 9749
14533 4475 962 
14534 5175 1415
14535 206  6858
14536 2722 5150
14537 4949 514 
14538 3184 672 
14539 4533 5319
14540 3815 6313
14541 2991 4128
14542 6838 1317
14543 6437 2292
14544 1599 2386
14545 9011 2801
14546 1858 1923
14547 1076 7857
14548 2305 4606
14549 3066 6872
14550 5209 9509
14551 4217 2636
14552 6327 5777
14553 294  5099
14554 7584 6349
14555 4428 4741
14556 1633 7768
14557 7092 2499
14558 5267 1757
14559 3156 3107
14560 6170 67  
14561 1116 4833
14562 8373 1765
14563 2031 5348
14564 9182 2489
14565 7988 2508
14566 8916 4569
14567 7349 6678
14568 807  2317
14569 4675 2212
14570 4059 1373
14571 7416 372 
14572 7289 234 
14573 4235 9449
14574 9918 5526
14575 5148 2356
14576 7703 9881
14577 1184 8538
14578 2315 158 
14579 4878 5272
14580 6786 7803
14581 7927 4370
14582 4606 5441
14583 3241 9731
14584 5574 5343
14585 4521 9195
14586 1719 2677
14587 2751 910 
14588 9080 2715
14589 1722 6370
14590 8535 8908
14591 2523 3156
14592 5382 9223
14593 9584 2218
14594 6568 2977
14595 2903 4441
14596 4643 899 
14597 5760 4558
14598 4730 875 
14599 4983 3227
14600 2983 4470
14601 364  6741
14602 900  1041
14603 3488 8637
14604 4542 3917
14605 2983 1441
14606 3238 3814
14607 3835 9587
14608 9882 6684
14609 8649 956 
14610 2873 4186
14611 3742 3914
14612 8402 7244
14613 7468 528 
14614 6837 4199
14615 7682 378 
14616 983  3881
14617 5928 9340
14618 4666 9135
14619 4403 6719
14620 2830 8971
14621 9456 8592
14622 8222 271 
14623 4172 5901
14624 1874 517 
14625 6399 8783
14626 8988 7139
14627 2368 6384
14628 7117 3529
14629 9291 9746
14630 3412 2167
14631 1238 5082
14632 8619 4950
14633 6203 4326
14634 6369 4306
14635 8613 148 
14636 3143 6007
14637 9451 3782
14638 457  27  
14639 223  6469
14640 6226 9680
14641 3422 5738
14642 372  5158
14643 4392 3300
14644 8761 7684
14645 2363 2598
14646 2312 8147
14647 9387 1654
14648 7657 4571
14649 1526 8439
14650 8414 5334
14651 3928 4277
14652 3533 4053
14653 1519 2490
14654 5668 8998
14655 4896 751 
14656 7238 5962
14657 3327 549 
14658 4338 3674
14659 6758 7599
14660 6214 5316
14661 2057 4494
14662 7134 5621
14663 8990 144 
14664 2665 4146
14665 6779 1890
14666 1500 8083
14667 2904 1790
14668 3711 7982
14669 6304 7495
14670 5318 574 
14671 1230 667 
14672 7780 4436
14673 4192 1180
14674 5857 8908
14675 7396 741 
14676 1843 8336
14677 7977 5357
14678 7231 922 
14679 172  8863
14680 2805 5546
14681 8855 9028
14682 4474 591 
14683 6519 3589
14684 5213 7677
14685 7965 5662
14686 4220 8591
14687 2515 7830
14688 4118 351 
14689 9184 3130
14690 7934 2172
14691 2620 7407
14692 6091 3701
14693 2516 1360
14694 7388 7327
14695 2134 5307
14696 2595 6583
14697 5222 5215
14698 2704 2965
14699 5157 7722
14700 498  5420
14701 5180 4765
14702 260  4133
14703 3728 9928
14704 7574 2362
14705 6228 6013
14706 2794 8856
14707 7066 9636
14708 8405 3184
14709 5110 4269
14710 4060 4502
14711 7180 1783
14712 6241 9537
14713 7305 3246
14714 3842 2972
14715 360  7703
14716 7388 4489
14717 9046 3241
14718 3802 1700
14719 5025 3559
14720 7390 5286
14721 4904 2904
14722 633  4996
14723 1035 9123
14724 4205 7404
14725 5871 2070
14726 5862 9030
14727 6975 393 
14728 6460 5782
14729 6520 6265
14730 4255 1773
14731 3115 3890
14732 8281 1801
14733 7975 7881
14734 4358 9673
14735 1136 4895
14736 8091 5645
14737 7215 3804
14738 927  9974
14739 8605 6146
14740 5136 3091
14741 1725 2107
14742 4572 1768
14743 6739 3053
14744 1344 1993
14745 6719 6955
14746 8173 404 
14747 9796 7060
14748 4142 5843
14749 2930 2798
14750 8338 7546
14751 4571 5834
14752 5530 7915
14753 8787 1709
14754 4015 8182
14755 4400 2077
14756 8251 1612
14757 8234 4469
14758 2717 5250
14759 6757 2741
14760 7641 8705
14761 5065 2834
14762 185  2633
14763 8332 2626
14764 9086 2497
14765 1028 5742
14766 4084 8126
14767 8090 572 
14768 3169 3178
14769 1339 2048
14770 9963 1930
14771 7624 2337
14772 7012 8626
14773 9095 5357
14774 7213 2993
14775 6818 7719
14776 9019 315 
14777 2548 8888
14778 9254 3477
14779 287  1932
14780 4719 3997
14781 53   9803
14782 2521 4341
14783 1138 5851
14784 8846 4647
14785 1768 37  
14786 8995 3417
14787 2672 2344
14788 7111 690 
14789 721  5540
14790 3074 6045
14791 7222 5624
14792 746  6346
14793 7156 1652
14794 3251 6008
14795 5944 9506
14796 844  638 
14797 8354 1104
14798 2119 9136
14799 7533 8008
14800 3183 5134
14801 6804 750 
14802 9172 6800
14803 8335 5581
14804 3703 3824
14805 6939 5625
14806 8178 14  
14807 963  6898
14808 4531 8780
14809 8860 3283
14810 66   5063
14811 4821 1454
14812 5533 5308
14813 6826 9035
14814 7592 6591
14815 6102 7122
14816 316  8891
14817 5323 9528
14818 8254 793 
14819 4497 3269
14820 207  1236
14821 5646 2738
14822 1983 4218
14823 5200 1303
14824 7746 7178
14825 5395 5954
14826 5622 2002
14827 2857 971 
14828 4345 1748
14829 6845 1019
14830 2365 8618
14831 9742 1773
14832 97   1871
14833 8612 2541
14834 9682 9143
14835 7980 1041
14836 9485 606 
14837 7670 4931
14838 4444 9239
14839 4420 6481
14840 6196 4097
14841 5412 8632
14842 6423 3218
14843 2706 9066
14844 5012 2585
14845 3457 5305
14846 4945 7690
14847 8665 1605
14848 9064 105 
14849 3116 465 
14850 2927 8423
14851 4993 4028
14852 5526 8980
14853 6693 4014
14854 9055 5559
14855 7690 4829
14856 5151 7521
14857 7563 6788
14858 345  4181
14859 5073 2094
14860 9027 699 
14861 2173 901 
14862 2690 3195
14863 5160 3714
14864 9110 3734
14865 6721 3656
14866 1434 2385
14867 2069 5492
14868 3091 3270
14869 5904 3963
14870 6288 7855
14871 6611 4946
14872 8978 4342
14873 5160 1635
14874 2371 2042
14875 6512 1311
14876 5167 8082
14877 7964 2592
14878 2453 3953
14879 5232 9720
14880 5263 4812
14881 3663 3195
14882 2213 805 
14883 4286 2274
14884 8564 413 
14885 552  5672
14886 1570 8721
14887 1625 1053
14888 974  4702
14889 6779 9903
14890 5481 4190
14891 4117 3718
14892 8063 9150
14893 1249 7390
14894 9599 4125
14895 5839 1944
14896 4321 5315
14897 8639 1604
14898 1366 91  
14899 1693 8695
14900 7945 9124
14901 6207 5315
14902 745  1324
14903 8447 6428
14904 2695 6414
14905 4381 3923
14906 2468 6501
14907 3506 645 
14908 8210 69  
14909 4444 27  
14910 9229 2891
14911 5860 5981
14912 6154 3012
14913 7597 8877
14914 2643 5693
14915 6275 9344
14916 8386 4004
14917 8330 2696
14918 6792 5218
14919 1016 9871
14920 3189 1535
14921 1360 8570
14922 5435 2234
14923 3156 9634
14924 7092 8258
14925 7686 688 
14926 4330 1112
14927 6706 3903
14928 6116 2644
14929 8406 7134
14930 558  3388
14931 8501 8345
14932 5606 6514
14933 1739 4522
14934 3948 3860
14935 8709 3527
14936 6795 5308
14937 9945 761 
14938 8462 5266
14939 6736 7927
14940 2621 6850
14941 8700 96  
14942 1260 4732
14943 9965 1175
14944 4153 2582
14945 2123 6855
14946 8213 7804
14947 5721 198 
14948 2303 1690
14949 3731 2744
14950 59   2224
14951 1644 7594
14952 4556 1007
14953 8488 9153
14954 1536 1369
14955 5987 1992
14956 3971 2546
14957 6667 5651
14958 6366 2017
14959 4492 5409
14960 8940 7449
14961 4509 8672
14962 5254 6334
14963 3523 2440
14964 5011 1411
14965 3843 2909
14966 400  9490
14967 5049 5596
14968 2083 8133
14969 965  3696
14970 6741 8988
14971 3348 8060
14972 6162 902 
14973 7578 8049
14974 9939 4096
14975 3052 458 
14976 3625 6355
14977 6049 5433
14978 3540 3235
14979 4917 492 
14980 9396 4504
14981 4623 1994
14982 2704 9398
14983 772  4108
14984 5252 5849
14985 5050 702 
14986 6253 5939
14987 8728 1611
14988 872  8739
14989 4894 6010
14990 146  6255
14991 2017 6276
14992 4605 6454
14993 4166 601 
14994 1974 6951
14995 9906 4894
14996 9012 7962
14997 6500 1582
14998 9681 342 
14999 2038 4159
15000 3226 2284
15001 9976 7017
15002 9984 3131
15003 4102 8007
15004 8072 3319
15005 6414 709 
15006 2919 3009
15007 8716 8339
15008 2527 4125
15009 6785 7481
15010 6355 8637
15011 9426 9445
15012 128  3633
15013 1457 834 
15014 5345 3133
15015 3382 3201
15016 1277 6929
15017 6168 7645
15018 340  447 
15019 8750 4312
15020 4591 6794
15021 1859 572 
15022 3368 517 
15023 5624 810 
15024 393  6197
15025 3620 7406
15026 1817 9184
15027 4460 4254
15028 7949 6324
15029 8451 5827
15030 2566 9857
15031 2839 6991
15032 6921 2290
15033 8737 2858
15034 3939 4677
15035 4410 5429
15036 7384 2811
15037 5781 2178
15038 6737 6114
15039 9397 6623
15040 8870 9225
15041 5973 1155
15042 6922 1170
15043 2746 7691
15044 8779 5998
15045 1850 1582
15046 8320 2638
15047 807  5362
15048 1463 1326
15049 448  3216
15050 645  4495
15051 1280 1727
15052 8051 877 
15053 3121 9904
15054 5356 3497
15055 624  4593
15056 636  3792
15057 827  3962
15058 5439 5767
15059 2100 5568
15060 9773 8678
15061 6812 7937
15062 8117 7957
15063 3642 8627
15064 5256 2178
15065 9845 9056
15066 8106 6564
15067 8556 2681
15068 4716 9765
15069 9882 9191
15070 6754 2948
15071 6632 5356
15072 7313 1742
15073 7275 6727
15074 5092 4018
15075 9684 7199
15076 4814 152 
15077 3430 9634
15078 3891 1497
15079 3699 52  
15080 7455 3073
15081 7699 8466
15082 8082 1837
15083 7305 1960
15084 1680 157 
15085 9745 7231
15086 6117 5185
15087 9631 5813
15088 8773 7389
15089 7118 6269
15090 9259 5995
15091 2746 8769
15092 713  501 
15093 1008 9954
15094 5924 5205
15095 7585 3210
15096 3379 169 
15097 2300 1104
15098 4701 2807
15099 4359 816 
15100 9878 6059
15101 8227 3281
15102 5607 5879
15103 515  2038
15104 4547 6302
15105 6560 7792
15106 3578 237 
15107 4435 4361
15108 3950 5744
15109 6157 7188
15110 3305 8364
15111 5595 1434
15112 5040 6787
15113 7806 6134
15114 605  7094
15115 5673 765 
15116 5876 1436
15117 1285 2394
15118 2488 8233
15119 3622 3351
15120 3089 3543
15121 4973 8522
15122 9058 4838
15123 9468 3981
15124 581  7368
15125 7168 2622
15126 5460 8433
15127 162  292 
15128 7937 6229
15129 4185 1726
15130 2084 2789
15131 2134 172 
15132 723  5614
15133 3643 4973
15134 2840 6927
15135 5693 3137
15136 4713 6492
15137 9073 1590
15138 6816 9088
15139 5943 113 
15140 8293 600 
15141 4291 7624
15142 3553 1148
15143 5373 9187
15144 3715 2554
15145 6848 6908
15146 2632 2647
15147 8457 4649
15148 7473 7796
15149 6492 2373
15150 7517 3644
15151 6452 9497
15152 1393 2442
15153 3643 6066
15154 4254 5437
15155 2038 1262
15156 8495 4807
15157 8698 6065
15158 4975 8996
15159 9840 9166
15160 2985 3128
15161 367  8176
15162 5295 1562
15163 1853 8902
15164 9306 5755
15165 270  4804
15166 1279 6542
15167 4319 1846
15168 270  6435
15169 6829 9536
15170 2835 1523
15171 4207 4082
15172 2924 2397
15173 6786 615 
15174 4598 5560
15175 1851 3189
15176 8697 3647
15177 2490 2238
15178 1800 6512
15179 9687 2119
15180 3610 899 
15181 5800 4522
15182 2875 1798
15183 6168 4408
15184 4267 5528
15185 5305 1160
15186 5146 8915
15187 7125 6779
15188 2207 886 
15189 7655 9546
15190 3655 8918
15191 2629 3730
15192 4421 1230
15193 754  2886
15194 3893 7504
15195 222  3323
15196 7399 4771
15197 2304 4149
15198 8439 9206
15199 5499 678 
15200 3936 4497
15201 367  2955
15202 3321 9600
15203 7841 5478
15204 4976 6266
15205 6542 9646
15206 3830 9913
15207 861  2345
15208 1686 7165
15209 3044 9827
15210 4309 7481
15211 1144 325 
15212 2997 1439
15213 3958 8957
15214 8595 4749
15215 9469 3556
15216 4493 7352
15217 360  2711
15218 1403 7135
15219 7698 6071
15220 586  5508
15221 9821 1834
15222 4509 2711
15223 779  4347
15224 1297 6574
15225 4018 9688
15226 2918 511 
15227 5420 3198
15228 2090 544 
15229 3854 1204
15230 374  7541
15231 302  9706
15232 9488 9808
15233 7269 5478
15234 1368 3899
15235 1243 4173
15236 1574 7159
15237 7555 6547
15238 1941 2597
15239 2486 1857
15240 8036 4404
15241 7922 8289
15242 5585 960 
15243 9096 6090
15244 1767 6308
15245 4254 8478
15246 4277 492 
15247 7654 9711
15248 8598 7423
15249 1095 279 
15250 5633 6527
15251 8883 5094
15252 111  4491
15253 8883 2371
15254 7371 2681
15255 8347 7113
15256 2473 4686
15257 9264 5641
15258 6507 9666
15259 2782 7208
15260 8193 2724
15261 9143 9176
15262 3040 6070
15263 1885 7580
15264 3737 1201
15265 9259 4587
15266 7707 6214
15267 7125 6340
15268 5559 9408
15269 9823 5474
15270 903  6749
15271 489  2918
15272 5835 1290
15273 685  5841
15274 1757 5848
15275 8021 9107
15276 9164 9389
15277 7683 5387
15278 2244 3202
15279 1086 1906
15280 5427 2718
15281 6800 2183
15282 3851 7318
15283 5304 9613
15284 7002 3172
15285 2747 9474
15286 7087 6701
15287 3923 5040
15288 7311 1674
15289 1214 6812
15290 6377 8432
15291 6285 9895
15292 1047 9568
15293 8773 5077
15294 6113 8701
15295 8123 4925
15296 9472 2005
15297 5926 9405
15298 8475 7343
15299 6908 5436
15300 9573 6744
15301 220  4354
15302 183  4494
15303 9237 9695
15304 1699 846 
15305 7638 5982
15306 9975 6085
15307 8702 8046
15308 8092 4170
15309 933  8327
15310 6458 1873
15311 1154 344 
15312 4043 5929
15313 3341 5723
15314 2371 4872
15315 3282 6374
15316 9391 7315
15317 4727 2477
15318 6504 5317
15319 3087 6124
15320 6257 4019
15321 3805 703 
15322 1255 5203
15323 5915 2410
15324 4109 4945
15325 3943 7354
15326 2989 6115
15327 54   9083
15328 7612 4587
15329 821  7698
15330 8428 905 
15331 8508 6960
15332 8480 6918
15333 3951 1405
15334 1225 6782
15335 5592 4577
15336 680  8921
15337 4075 8196
15338 3433 6005
15339 5203 1073
15340 8565 9405
15341 1208 4886
15342 1780 6130
15343 1301 8277
15344 6970 2231
15345 7449 9843
15346 8204 894 
15347 1211 1067
15348 1025 4286
15349 9402 5817
15350 1247 334 
15351 6360 848 
15352 9682 3428
15353 4968 1791
15354 2748 4372
15355 2247 2544
15356 8942 3712
15357 5007 9213
15358 2151 9980
15359 2092 9512
15360 7189 14  
15361 1765 1950
15362 4711 1518
15363 8597 9152
15364 6851 5174
15365 4497 8221
15366 8049 9697
15367 4777 6128
15368 4257 1756
15369 6358 56  
15370 7862 5146
15371 6002 5788
15372 8392 2789
15373 8542 6886
15374 1301 5347
15375 7318 814 
15376 1765 7415
15377 3465 2682
15378 7821 6145
15379 6437 8927
15380 8670 7893
15381 4393 1352
15382 2978 2283
15383 2210 5953
15384 1006 8262
15385 2750 9916
15386 1653 51  
15387 7863 804 
15388 1999 8854
15389 2444 4942
15390 1226 719 
15391 9766 2196
15392 2267 9681
15393 1734 3223
15394 4929 8339
15395 347  3906
15396 4642 2395
15397 5443 2351
15398 7387 7989
15399 9753 5868
15400 9029 5496
15401 4282 1009
15402 5054 7079
15403 489  6534
15404 4539 4538
15405 1431 4447
15406 5813 1947
15407 2373 4824
15408 3427 7157
15409 9953 7570
15410 7589 9699
15411 1698 8008
15412 2463 16  
15413 9002 4460
15414 8368 4949
15415 7797 3718
15416 826  2512
15417 677  2051
15418 8996 1066
15419 1193 8219
15420 7760 8639
15421 9379 8138
15422 9867 6798
15423 3522 3323
15424 5398 6848
15425 200  2842
15426 2933 5561
15427 6053 7781
15428 8251 4411
15429 4673 314 
15430 3849 9493
15431 6331 4601
15432 6624 4205
15433 9693 8868
15434 4232 8570
15435 5471 6140
15436 5394 8384
15437 3443 6125
15438 5764 9781
15439 991  7712
15440 8948 4334
15441 824  8873
15442 1946 1409
15443 1305 3391
15444 9267 474 
15445 5527 1469
15446 2112 4113
15447 3643 5034
15448 1466 7018
15449 6322 3124
15450 3654 5742
15451 5584 8433
15452 6819 6777
15453 1851 8276
15454 8687 1500
15455 1055 8620
15456 1321 5195
15457 9813 4645
15458 7657 8548
15459 9518 5763
15460 2464 5725
15461 5659 1344
15462 479  4496
15463 2640 3988
15464 6807 1926
15465 5230 7938
15466 6020 9449
15467 6889 5839
15468 8135 9828
15469 960  4454
15470 6826 5118
15471 2849 4153
15472 7877 5862
15473 2300 4381
15474 8600 1883
15475 7945 9353
15476 1700 8208
15477 6521 3194
15478 7279 6749
15479 1715 4396
15480 9221 1276
15481 8246 9761
15482 462  7723
15483 3653 1944
15484 8582 8472
15485 6237 6584
15486 75   3748
15487 6733 8226
15488 1406 8724
15489 4278 1050
15490 2531 4299
15491 1041 752 
15492 2150 7797
15493 1148 6760
15494 2809 4775
15495 5957 5340
15496 5164 1140
15497 2995 4442
15498 377  4723
15499 6322 3943
15500 7395 3963
15501 4245 7507
15502 7085 9530
15503 707  6620
15504 817  9754
15505 1549 9678
15506 6137 2208
15507 7075 6988
15508 7345 4413
15509 2546 581 
15510 3962 2366
15511 1339 6827
15512 4139 6617
15513 8671 8796
15514 3714 9200
15515 614  1588
15516 8348 6388
15517 4810 9166
15518 8203 5520
15519 5263 3832
15520 4396 3822
15521 457  7740
15522 4924 1512
15523 4456 8231
15524 6232 2220
15525 4733 7313
15526 2006 4377
15527 7779 8896
15528 6995 162 
15529 4692 6994
15530 7303 883 
15531 6042 3853
15532 2028 1914
15533 1371 537 
15534 6489 6380
15535 2777 6139
15536 935  3792
15537 5353 3640
15538 8702 6105
15539 8855 3615
15540 7892 9464
15541 9350 4043
15542 4167 7451
15543 2998 5516
15544 5511 8420
15545 5270 3209
15546 4665 2639
15547 4887 4795
15548 1503 2270
15549 647  6883
15550 574  4073
15551 2947 6036
15552 6950 320 
15553 3668 8177
15554 5026 2171
15555 6546 141 
15556 442  5561
15557 3098 1497
15558 8789 4595
15559 7141 4197
15560 3442 1752
15561 3508 7327
15562 3643 4784
15563 1916 3787
15564 5634 1938
15565 5717 2019
15566 7407 4513
15567 6354 9321
15568 1841 78  
15569 4120 4394
15570 3301 8423
15571 3986 8669
15572 8126 7071
15573 1460 723 
15574 6956 4994
15575 901  6960
15576 6401 7642
15577 7057 8126
15578 6363 4435
15579 963  2142
15580 6240 6943
15581 1472 6915
15582 379  6388
15583 5345 8849
15584 287  9371
15585 4488 7517
15586 8233 2417
15587 4157 7022
15588 1481 3872
15589 3839 4807
15590 2109 9918
15591 5195 2879
15592 9190 4161
15593 2415 1664
15594 7267 4445
15595 1636 6507
15596 4681 8015
15597 6210 2226
15598 2074 7126
15599 2725 5720
15600 4456 3998
15601 3776 7814
15602 2967 3599
15603 8242 3742
15604 1684 516 
15605 4986 7442
15606 569  4261
15607 7630 5446
15608 7174 12  
15609 1272 5706
15610 9762 6724
15611 2924 3377
15612 944  2596
15613 5795 9143
15614 2480 4957
15615 6989 5002
15616 5135 922 
15617 2632 790 
15618 7314 6515
15619 5247 3543
15620 509  2168
15621 7348 4819
15622 6071 7652
15623 8240 3601
15624 4984 7837
15625 7171 9644
15626 857  8224
15627 4512 3551
15628 8033 8266
15629 1741 7209
15630 9304 6835
15631 6099 3580
15632 5059 619 
15633 5836 6300
15634 9906 2612
15635 5483 6441
15636 1819 9037
15637 9293 6130
15638 279  6688
15639 1214 3632
15640 1484 66  
15641 6246 1438
15642 1090 4736
15643 6309 4276
15644 2400 1919
15645 5457 4183
15646 6062 587 
15647 1632 2511
15648 9779 4090
15649 1963 5178
15650 5082 3590
15651 5293 408 
15652 2939 4985
15653 7191 9984
15654 4818 2207
15655 1594 3341
15656 5490 6101
15657 5280 6432
15658 5806 9700
15659 5133 1573
15660 3262 502 
15661 5145 5582
15662 6902 288 
15663 3468 8104
15664 1217 592 
15665 2284 5347
15666 2551 7218
15667 3979 3920
15668 5082 5428
15669 8041 4520
15670 9730 5652
15671 2320 2048
15672 3728 1522
15673 953  380 
15674 728  5001
15675 2056 3918
15676 8922 2753
15677 6224 771 
15678 9550 2991
15679 2693 3926
15680 9117 1572
15681 5388 8789
15682 9701 4382
15683 6544 8516
15684 708  4472
15685 9289 9452
15686 1394 9699
15687 9080 4914
15688 7822 2128
15689 1172 9763
15690 763  5400
15691 6213 1868
15692 2829 9232
15693 1927 4883
15694 1760 1451
15695 7150 4270
15696 8900 2453
15697 3423 985 
15698 3796 7793
15699 6386 6624
15700 5222 4070
15701 7858 9954
15702 3224 9829
15703 7056 1569
15704 9951 8661
15705 8054 3234
15706 8528 8681
15707 2995 1860
15708 5435 1516
15709 7652 9150
15710 814  1547
15711 7183 6967
15712 3629 5178
15713 7729 8130
15714 3973 5377
15715 6672 4326
15716 7883 7209
15717 3817 3569
15718 361  9125
15719 2980 4476
15720 4595 4659
15721 2725 524 
15722 2921 1489
15723 4783 4974
15724 9857 1377
15725 6389 7488
15726 5247 649 
15727 1084 3203
15728 5247 1314
15729 918  7778
15730 1771 5284
15731 5609 6753
15732 7101 2248
15733 2102 7866
15734 4419 3745
15735 740  6979
15736 3737 9732
15737 2819 9793
15738 7144 8810
15739 1369 3449
15740 8575 8571
15741 1808 1824
15742 6571 5819
15743 3749 7447
15744 5231 3693
15745 4116 4185
15746 6239 1871
15747 8219 9926
15748 5920 2167
15749 2504 8771
15750 6898 1659
15751 7345 56  
15752 5344 7056
15753 591  5764
15754 4563 171 
15755 237  2091
15756 5547 8446
15757 5714 4965
15758 4811 8379
15759 7404 3642
15760 7178 3637
15761 2043 6665
15762 503  787 
15763 5602 4425
15764 7306 7622
15765 594  8167
15766 5462 7336
15767 878  1204
15768 5005 8330
15769 4906 3582
15770 4351 4197
15771 8338 5094
15772 5066 2688
15773 899  7591
15774 3639 5165
15775 1150 5275
15776 7414 7638
15777 9768 1548
15778 8959 9550
15779 6539 6985
15780 420  4025
15781 2238 9541
15782 1200 4524
15783 4771 5135
15784 8872 3052
15785 1704 9301
15786 3857 4226
15787 9412 2453
15788 3230 2328
15789 4847 2285
15790 6629 7824
15791 3036 7351
15792 1026 4395
15793 3380 8395
15794 1923 7844
15795 9368 3134
15796 3432 2915
15797 1495 9413
15798 5057 6957
15799 6685 9695
15800 3671 2325
15801 2908 9222
15802 2225 3716
15803 3806 3835
15804 848  8895
15805 704  6701
15806 3181 5723
15807 6574 7643
15808 4811 7407
15809 2586 9760
15810 1600 6035
15811 367  9205
15812 9656 5402
15813 8493 9520
15814 1895 6361
15815 2305 455 
15816 4442 4912
15817 1287 3254
15818 5430 3882
15819 7538 2698
15820 2517 9273
15821 6926 5073
15822 3060 2154
15823 8487 8211
15824 1325 3617
15825 6163 8691
15826 3583 9262
15827 3218 5902
15828 7151 5472
15829 9960 6836
15830 4600 2273
15831 2135 9307
15832 9144 5237
15833 3431 6932
15834 1078 4502
15835 644  7991
15836 7871 5741
15837 1653 287 
15838 2399 9849
15839 4206 5492
15840 1957 287 
15841 1012 3796
15842 539  9011
15843 3119 3900
15844 5518 8950
15845 8994 2908
15846 1920 5542
15847 6938 7333
15848 4078 149 
15849 183  7399
15850 3227 8320
15851 5165 7651
15852 4147 9447
15853 71   8229
15854 5799 6978
15855 9351 859 
15856 972  8583
15857 3141 8026
15858 3218 9437
15859 9442 7396
15860 3308 3299
15861 4363 6719
15862 625  3629
15863 7971 2353
15864 8266 4227
15865 5173 7315
15866 3673 8048
15867 38   1959
15868 8718 5136
15869 9805 9616
15870 2393 9127
15871 6655 6459
15872 5724 2694
15873 6592 4732
15874 2682 6543
15875 4726 8429
15876 6771 3207
15877 9792 7347
15878 7130 227 
15879 9718 8505
15880 9575 8544
15881 3030 184 
15882 9242 9669
15883 9707 7521
15884 6887 2507
15885 3861 834 
15886 7588 4177
15887 1116 8328
15888 1927 2891
15889 4123 4246
15890 9169 7077
15891 8963 7522
15892 1197 7607
15893 6206 8162
15894 3405 8047
15895 3665 7646
15896 1528 9807
15897 6116 9197
15898 7863 3523
15899 1371 8427
15900 7501 5438
15901 2923 3096
15902 9422 9495
15903 959  3909
15904 5137 1442
15905 2955 9211
15906 4759 3771
15907 8175 7567
15908 2895 332 
15909 8192 9467
15910 2056 7316
15911 4354 7331
15912 4475 3531
15913 9181 9112
15914 4200 8242
15915 46   6228
15916 2012 8371
15917 804  807 
15918 2058 6117
15919 5293 6469
15920 4969 2953
15921 7002 9194
15922 5947 3177
15923 4739 7685
15924 4032 8847
15925 9364 152 
15926 1735 3974
15927 9068 7027
15928 1794 1452
15929 8608 9705
15930 7240 9898
15931 9739 6646
15932 923  3462
15933 8967 3379
15934 2250 6894
15935 4206 1096
15936 8231 5236
15937 7955 4721
15938 2157 1970
15939 5533 6116
15940 286  9178
15941 3426 5930
15942 9364 2954
15943 5560 6392
15944 5451 5845
15945 6487 6924
15946 7117 4084
15947 2804 945 
15948 9814 9561
15949 8575 4932
15950 9834 7975
15951 3023 1322
15952 1508 6965
15953 584  144 
15954 3389 1637
15955 643  4045
15956 1460 7775
15957 1022 4936
15958 2172 1775
15959 2237 9220
15960 7534 3798
15961 8486 1107
15962 439  3202
15963 9774 2971
15964 1046 4338
15965 2023 5591
15966 457  8506
15967 2907 6286
15968 141  4057
15969 3585 4430
15970 4378 6575
15971 4259 3567
15972 9361 6368
15973 7760 3683
15974 6553 3399
15975 6325 4831
15976 416  8357
15977 6292 3455
15978 262  4929
15979 6004 8925
15980 8015 2507
15981 6560 5611
15982 9886 7167
15983 2929 9552
15984 9249 3646
15985 2200 3859
15986 7695 4646
15987 1870 4341
15988 4449 9281
15989 8716 3944
15990 1868 9845
15991 3068 3941
15992 6669 7149
15993 314  1469
15994 7097 5339
15995 3335 2012
15996 314  976 
15997 8263 3784
15998 7038 1518
15999 3316 6549
16000 331  6272
16001 3552 3211
16002 762  2321
16003 7993 4650
16004 5345 9836
16005 4596 9312
16006 65   1085
16007 1216 9441
16008 4191 7174
16009 9864 6371
16010 8074 1995
16011 7312 7307
16012 7704 2237
16013 4496 1064
16014 80   6973
16015 4485 7064
16016 5504 2768
16017 2754 8441
16018 4234 6083
16019 890  8467
16020 1740 3074
16021 7380 4921
16022 6657 9305
16023 5406 8079
16024 3906 7026
16025 5921 5073
16026 2172 773 
16027 8893 4381
16028 7877 3089
16029 8871 6198
16030 8844 4323
16031 9547 4388
16032 4803 5031
16033 2012 3526
16034 9437 8965
16035 2121 6240
16036 7588 1673
16037 9199 343 
16038 4340 6841
16039 173  5741
16040 3208 3349
16041 6726 5397
16042 4280 676 
16043 6297 7158
16044 5956 3559
16045 9486 2794
16046 8048 708 
16047 4529 5389
16048 7690 9055
16049 1989 7978
16050 583  3770
16051 4765 7914
16052 8411 8723
16053 7241 4222
16054 423  7498
16055 4337 5381
16056 8064 4698
16057 6670 2488
16058 4372 9088
16059 2377 8471
16060 8207 2938
16061 5772 4781
16062 7952 4382
16063 7324 7657
16064 2168 9647
16065 9982 4126
16066 3821 3946
16067 9549 2592
16068 4658 4074
16069 6374 5172
16070 4423 9200
16071 5827 9478
16072 4776 6232
16073 8314 5855
16074 4459 9141
16075 99   272 
16076 5592 4544
16077 6710 1559
16078 6984 2753
16079 3718 6849
16080 5773 2618
16081 7476 3390
16082 9953 8869
16083 8876 9   
16084 2921 7655
16085 5569 441 
16086 7792 9705
16087 5542 3772
16088 3694 7701
16089 8241 3735
16090 7526 3946
16091 5208 773 
16092 3050 5336
16093 7973 734 
16094 566  995 
16095 8627 1660
16096 7320 1606
16097 5214 3813
16098 7887 809 
16099 4185 1014
16100 6884 160 
16101 5335 9974
16102 8071 9650
16103 2116 8123
16104 1372 545 
16105 7922 3287
16106 1846 9784
16107 5638 6568
16108 1608 6594
16109 4770 2123
16110 1436 1205
16111 7903 3213
16112 4936 5594
16113 5542 2564
16114 2766 5930
16115 1872 4319
16116 7604 2433
16117 8073 7158
16118 1301 8835
16119 3127 4291
16120 9361 5848
16121 8130 3469
16122 1075 1293
16123 7912 8827
16124 8716 988 
16125 3718 229 
16126 1133 2792
16127 2691 6909
16128 1676 9437
16129 9499 8393
16130 7766 7040
16131 9176 9340
16132 8848 9961
16133 7684 9553
16134 1635 7115
16135 2334 6219
16136 2314 6458
16137 1789 6947
16138 2769 7419
16139 8895 5710
16140 1661 5685
16141 6231 1748
16142 2344 9662
16143 9412 1811
16144 3625 8821
16145 2553 9433
16146 9211 8397
16147 1549 5831
16148 9814 8769
16149 9839 3501
16150 7013 1616
16151 995  9364
16152 1867 8028
16153 7278 579 
16154 6453 3954
16155 4167 5751
16156 2772 6476
16157 7092 4355
16158 8575 9615
16159 9934 6364
16160 1362 8470
16161 3175 6867
16162 3358 5368
16163 6937 9431
16164 8948 4301
16165 5850 1144
16166 6766 979 
16167 8271 8447
16168 2171 134 
16169 9692 2536
16170 9573 6291
16171 1517 1469
16172 7404 7645
16173 8546 3288
16174 6102 6666
16175 7792 2726
16176 845  5729
16177 4124 1532
16178 1394 7195
16179 609  2294
16180 6458 9178
16181 166  1270
16182 9762 6222
16183 2057 7865
16184 8595 4190
16185 6127 4625
16186 882  4788
16187 9234 2112
16188 3466 2317
16189 2925 1722
16190 3932 9740
16191 3025 2628
16192 5727 4157
16193 2652 6997
16194 2167 1492
16195 362  5007
16196 9711 2119
16197 1585 6736
16198 4490 3132
16199 538  4025
16200 8193 1985
16201 1329 1938
16202 4807 7072
16203 7145 2498
16204 1754 5760
16205 1361 6657
16206 3338 7532
16207 8490 788 
16208 1791 9172
16209 7160 469 
16210 3340 9858
16211 2575 4347
16212 2622 1818
16213 7757 2437
16214 7709 5910
16215 1109 5865
16216 6979 7740
16217 4363 9964
16218 7607 7507
16219 2147 6796
16220 9088 7919
16221 8908 8011
16222 9254 6131
16223 8254 2037
16224 7196 2877
16225 8274 4379
16226 1770 2030
16227 5654 6717
16228 9206 9350
16229 6265 9301
16230 195  1476
16231 8740 7307
16232 7855 8633
16233 2089 8253
16234 66   6191
16235 9497 6070
16236 6662 629 
16237 5887 5393
16238 8419 6042
16239 7344 8358
16240 3778 2077
16241 9615 1371
16242 1645 6423
16243 3280 2822
16244 7469 6160
16245 9548 3569
16246 878  6222
16247 9839 2478
16248 9362 2142
16249 5437 2671
16250 6819 3564
16251 7098 6784
16252 178  1220
16253 5151 314 
16254 5883 4676
16255 6812 8217
16256 6119 1609
16257 2434 8646
16258 160  5998
16259 3889 5748
16260 2742 3123
16261 9663 547 
16262 7143 506 
16263 4160 1683
16264 2128 904 
16265 5124 891 
16266 3626 2164
16267 7085 8712
16268 1179 924 
16269 3656 8762
16270 5890 4329
16271 7165 9899
16272 3787 308 
16273 9369 5269
16274 9439 7083
16275 171  2855
16276 5676 1217
16277 2021 2123
16278 6121 3094
16279 1954 2196
16280 6065 3791
16281 7106 272 
16282 8281 208 
16283 3646 5662
16284 6559 1219
16285 525  424 
16286 6551 300 
16287 4160 2331
16288 502  9691
16289 4795 7979
16290 8412 3790
16291 8954 173 
16292 5792 8695
16293 2152 5380
16294 3634 5653
16295 3051 3025
16296 4188 3966
16297 8748 2253
16298 2711 3497
16299 8003 562 
16300 4818 4147
16301 2016 3614
16302 9418 7947
16303 6989 7940
16304 8473 2252
16305 539  552 
16306 737  4042
16307 6872 4010
16308 7388 4693
16309 3284 5415
16310 6169 2452
16311 7774 862 
16312 1240 3969
16313 2340 952 
16314 2031 6229
16315 1607 702 
16316 7029 1098
16317 5219 7239
16318 9921 7167
16319 7194 3022
16320 5707 139 
16321 8354 6143
16322 2985 7154
16323 5924 5703
16324 8412 4398
16325 9553 4551
16326 7656 4926
16327 6329 8929
16328 8037 640 
16329 361  3992
16330 1982 6791
16331 9082 4373
16332 2402 124 
16333 7544 6247
16334 7631 9721
16335 9112 6661
16336 5849 955 
16337 8471 8359
16338 7955 851 
16339 1941 3972
16340 6885 916 
16341 6266 6604
16342 7656 4602
16343 7826 5920
16344 1902 5159
16345 2331 2896
16346 9334 1278
16347 7324 8016
16348 5100 2910
16349 1376 1046
16350 3689 7233
16351 9117 7657
16352 9247 303 
16353 5599 497 
16354 3205 8788
16355 7213 5159
16356 3956 3561
16357 1092 3861
16358 7555 923 
16359 9908 7469
16360 1175 4414
16361 6979 2329
16362 8722 5009
16363 195  4373
16364 3996 4527
16365 9206 3201
16366 7485 9617
16367 3618 2832
16368 8659 5167
16369 9245 9058
16370 3570 2184
16371 4701 5243
16372 2747 4591
16373 9071 4067
16374 7366 867 
16375 671  2614
16376 7710 4048
16377 5942 520 
16378 216  4160
16379 7671 5564
16380 8023 7959
16381 2187 918 
16382 8954 4749
16383 1507 3416
16384 5929 1613
16385 1379 4886
16386 9766 413 
16387 3115 8802
16388 4051 1876
16389 3148 4853
16390 1545 7309
16391 6914 8915
16392 444  4500
16393 4789 3813
16394 9068 6526
16395 5049 9687
16396 3683 9029
16397 4065 5529
16398 9663 8645
16399 8001 1902
16400 6635 8122
16401 1877 4287
16402 2793 2373
16403 9944 3467
16404 2559 6261
16405 1680 2925
16406 7129 9462
16407 9271 5209
16408 1397 4890
16409 4705 4612
16410 201  633 
16411 5774 5093
16412 5356 6547
16413 200  1043
16414 9552 2650
16415 6838 5185
16416 4961 321 
16417 5934 6962
16418 2646 6542
16419 6921 2763
16420 310  1606
16421 6531 8985
16422 6639 2455
16423 9709 6495
16424 3867 7907
16425 8121 6716
16426 6017 3317
16427 6479 8853
16428 9807 6731
16429 3475 1879
16430 7345 2703
16431 2433 5585
16432 4273 2873
16433 1671 3222
16434 4432 3777
16435 6180 5746
16436 7137 5604
16437 5892 813 
16438 5211 3818
16439 2563 6670
16440 8607 4754
16441 3113 3789
16442 7748 2440
16443 1659 3474
16444 4114 2237
16445 3705 1428
16446 4693 75  
16447 5966 1346
16448 1886 4839
16449 3009 9086
16450 7383 2340
16451 5945 1605
16452 5482 4334
16453 7066 3594
16454 1491 4183
16455 1131 4755
16456 5932 896 
16457 4130 4148
16458 1695 5402
16459 9924 3053
16460 2707 5464
16461 4815 8102
16462 7749 8455
16463 9727 3473
16464 5215 5403
16465 7260 7969
16466 8314 7181
16467 4007 514 
16468 2960 1478
16469 6309 5604
16470 3752 5613
16471 9622 1242
16472 5074 5073
16473 276  6855
16474 3415 7584
16475 7821 3603
16476 2306 9121
16477 8457 1124
16478 9566 2361
16479 5053 1295
16480 419  6862
16481 5433 8260
16482 7633 6590
16483 4970 7186
16484 805  9397
16485 2036 6726
16486 1518 4040
16487 5102 2795
16488 990  6753
16489 3902 9370
16490 627  125 
16491 7549 931 
16492 3985 398 
16493 4759 4775
16494 8682 4770
16495 9377 8066
16496 4426 8203
16497 1297 8617
16498 3422 239 
16499 9175 7650
16500 3473 9570
16501 956  2694
16502 5356 3567
16503 8817 8885
16504 153  2624
16505 1228 5342
16506 838  5654
16507 252  3098
16508 7861 935 
16509 9246 2464
16510 9841 8125
16511 5741 3706
16512 2618 2115
16513 6999 3911
16514 4137 206 
16515 7037 6653
16516 7459 3890
16517 3278 277 
16518 5995 472 
16519 6791 2204
16520 2043 9850
16521 4282 2139
16522 5720 8518
16523 5960 9547
16524 1253 6171
16525 8823 7980
16526 1349 6015
16527 2158 9900
16528 8141 29  
16529 5027 8858
16530 5528 8043
16531 5034 3839
16532 2619 3200
16533 3344 5707
16534 7771 8938
16535 2159 7684
16536 5949 3172
16537 4839 8438
16538 2889 4870
16539 5079 242 
16540 2366 6721
16541 8301 5965
16542 1914 7383
16543 4686 2852
16544 2976 3501
16545 374  4389
16546 9676 648 
16547 4891 7293
16548 6314 4287
16549 1354 6274
16550 7178 2975
16551 1039 6200
16552 9745 425 
16553 5092 1809
16554 181  7133
16555 9718 7509
16556 4506 7887
16557 1945 4691
16558 9395 9935
16559 6268 6831
16560 3562 4206
16561 59   1507
16562 1967 4376
16563 7838 4308
16564 3125 5798
16565 9149 4281
16566 8378 3020
16567 2039 722 
16568 489  6791
16569 2560 3378
16570 3441 2817
16571 7963 4039
16572 6717 9348
16573 3135 2590
16574 9050 185 
16575 8111 4411
16576 3933 3793
16577 2955 2308
16578 6841 1701
16579 1150 8706
16580 4779 3523
16581 124  9064
16582 3919 4914
16583 6132 836 
16584 6051 7670
16585 4242 4143
16586 9959 3704
16587 12   8478
16588 5436 9520
16589 1640 5068
16590 3022 8121
16591 7795 3788
16592 2837 3969
16593 9056 8581
16594 7778 3992
16595 7498 7007
16596 199  8085
16597 4836 5038
16598 9325 9296
16599 350  6166
16600 5009 4313
16601 2465 5936
16602 9330 6788
16603 4867 6623
16604 1380 3805
16605 1799 2563
16606 468  4524
16607 5783 927 
16608 4662 7702
16609 5809 9447
16610 8375 9070
16611 5857 3912
16612 8777 5458
16613 831  3549
16614 8594 1475
16615 2182 1276
16616 1089 4143
16617 4869 8654
16618 4200 486 
16619 1912 4959
16620 5735 3829
16621 250  9300
16622 377  2833
16623 4538 7149
16624 2739 1352
16625 6466 9258
16626 3640 3268
16627 7716 2488
16628 7766 875 
16629 7738 8184
16630 8192 982 
16631 3884 2202
16632 4628 2784
16633 2205 9710
16634 9019 3208
16635 8108 8072
16636 8670 7131
16637 1117 8433
16638 8550 6982
16639 1191 3236
16640 9229 4211
16641 7341 4633
16642 3624 3552
16643 3832 7780
16644 6470 9273
16645 5270 39  
16646 2080 9348
16647 1690 2151
16648 3343 5843
16649 353  3316
16650 4702 1460
16651 4280 3365
16652 796  2614
16653 3416 4101
16654 408  3662
16655 3241 5981
16656 5042 4532
16657 4801 2895
16658 4575 3777
16659 961  8885
16660 3206 2866
16661 1456 5541
16662 8137 1154
16663 398  1991
16664 6075 2732
16665 8542 8502
16666 2495 8182
16667 9803 1812
16668 2206 3812
16669 1728 477 
16670 6989 2944
16671 932  2794
16672 4257 8440
16673 6456 2521
16674 8193 1970
16675 5395 6925
16676 3354 786 
16677 744  3801
16678 8991 6884
16679 2975 9455
16680 7594 2683
16681 7506 1951
16682 668  153 
16683 654  4060
16684 3391 9653
16685 251  4982
16686 2694 1411
16687 4680 9203
16688 7869 5731
16689 7142 2828
16690 3917 5665
16691 6405 4937
16692 6455 2899
16693 9567 5011
16694 3873 4112
16695 5206 3244
16696 6564 6481
16697 4538 4881
16698 5399 7078
16699 1943 9828
16700 1217 5109
16701 1656 8818
16702 7672 4338
16703 3714 779 
16704 2624 6667
16705 8017 7651
16706 6985 3174
16707 6061 3704
16708 5404 1309
16709 4982 8524
16710 3140 5913
16711 5104 9556
16712 5726 731 
16713 9594 2735
16714 4328 5292
16715 9856 9273
16716 1536 7870
16717 581  2110
16718 6372 9642
16719 1690 6516
16720 2011 492 
16721 2190 9255
16722 6427 721 
16723 2059 4129
16724 6600 315 
16725 1026 3463
16726 8248 4579
16727 1578 1047
16728 3111 4217
16729 9774 2881
16730 3130 1069
16731 9710 1687
16732 6394 2612
16733 6761 8503
16734 4878 9652
16735 8550 5914
16736 5629 2575
16737 1135 1575
16738 5927 5130
16739 4583 4881
16740 2054 8785
16741 3414 8821
16742 5986 250 
16743 7550 361 
16744 4982 7872
16745 6994 1154
16746 792  6492
16747 7152 7806
16748 928  5969
16749 9878 4445
16750 8760 6103
16751 4878 5745
16752 1944 5564
16753 1493 7548
16754 3831 7023
16755 8320 9055
16756 1661 2808
16757 3064 3489
16758 8670 472 
16759 3157 3224
16760 7126 7128
16761 1903 8191
16762 7633 1428
16763 7714 7028
16764 2954 7125
16765 6438 674 
16766 8072 7485
16767 9041 2350
16768 7233 99  
16769 6774 13  
16770 7009 7212
16771 197  749 
16772 1219 2120
16773 241  437 
16774 6274 9910
16775 3601 9413
16776 810  3755
16777 2852 7586
16778 1939 9925
16779 2482 1434
16780 3556 7224
16781 1956 2424
16782 9644 86  
16783 2220 9269
16784 2447 2509
16785 3634 2265
16786 5431 2664
16787 1527 110 
16788 3024 3904
16789 2690 8718
16790 6628 193 
16791 4096 4956
16792 2623 1697
16793 9561 3226
16794 8200 4030
16795 1228 6468
16796 2504 4711
16797 6366 8903
16798 609  4577
16799 4523 7569
16800 9349 8485
16801 8886 3973
16802 4510 7195
16803 1516 1685
16804 5893 6436
16805 5747 7964
16806 5584 3220
16807 8238 1854
16808 9587 7195
16809 902  4224
16810 1722 6602
16811 2620 4791
16812 3666 1998
16813 1958 8355
16814 8217 5051
16815 2750 37  
16816 2805 1414
16817 6196 3025
16818 3334 3173
16819 6517 79  
16820 2672 8093
16821 8768 257 
16822 9751 5150
16823 6052 7621
16824 9217 2832
16825 9435 7687
16826 7388 4571
16827 4965 7138
16828 1039 5782
16829 900  3996
16830 444  6481
16831 21   597 
16832 2027 8328
16833 2979 6560
16834 453  5810
16835 7355 8051
16836 6279 7102
16837 9611 2382
16838 9727 5081
16839 7441 454 
16840 724  6399
16841 8853 4023
16842 2637 5818
16843 4086 232 
16844 6185 4306
16845 1682 8192
16846 2818 3654
16847 2707 809 
16848 592  8127
16849 7247 5972
16850 2480 4030
16851 8842 3334
16852 514  5431
16853 3868 8332
16854 8608 8925
16855 3822 3228
16856 9009 9735
16857 8887 5547
16858 5200 2343
16859 8775 2183
16860 200  4516
16861 3671 4388
16862 2063 8763
16863 4917 4224
16864 3383 4459
16865 5131 5917
16866 6505 8860
16867 8855 1818
16868 5414 7153
16869 1148 4600
16870 3286 1827
16871 2082 9608
16872 7514 1385
16873 5845 3331
16874 8540 7907
16875 8444 7572
16876 4613 5242
16877 6819 1213
16878 6279 9376
16879 1977 7571
16880 3861 7848
16881 7964 8117
16882 3034 4102
16883 6650 1638
16884 3874 3652
16885 9391 2896
16886 5048 2407
16887 4163 9067
16888 9372 3171
16889 2498 6295
16890 829  8673
16891 1455 6099
16892 5673 6790
16893 5836 8431
16894 2963 2813
16895 6555 3471
16896 9099 258 
16897 807  880 
16898 3605 9360
16899 9273 1936
16900 9850 9595
16901 3877 2635
16902 1060 8912
16903 1477 8718
16904 910  250 
16905 4423 1614
16906 4137 9524
16907 6511 7196
16908 1818 6129
16909 4591 905 
16910 1672 8496
16911 815  7084
16912 4749 2967
16913 3926 6769
16914 9829 915 
16915 7886 27  
16916 529  9842
16917 7515 5036
16918 2567 5586
16919 7788 3480
16920 5979 1125
16921 590  5800
16922 6990 726 
16923 3162 8015
16924 1225 1018
16925 5906 5600
16926 4772 6647
16927 374  6371
16928 9170 640 
16929 1582 5712
16930 2331 5333
16931 5593 1881
16932 6984 1033
16933 6064 7259
16934 4875 2074
16935 8264 3762
16936 6035 8402
16937 5984 8512
16938 3112 1429
16939 9122 1840
16940 9092 3464
16941 6787 3789
16942 2430 5271
16943 3550 2333
16944 7890 6417
16945 3834 5388
16946 5320 2223
16947 3502 5419
16948 3422 15  
16949 4527 8833
16950 4642 3658
16951 1327 9217
16952 3279 4071
16953 6731 4846
16954 1997 7936
16955 4673 5848
16956 3959 3562
16957 3232 9964
16958 5284 3011
16959 203  9297
16960 6976 6510
16961 4387 8929
16962 7691 7302
16963 8812 2467
16964 7966 9190
16965 5595 5717
16966 7370 2732
16967 9828 2230
16968 7387 2379
16969 429  3006
16970 4466 9512
16971 3112 7480
16972 1700 5584
16973 4352 3613
16974 2274 9392
16975 4200 9422
16976 3062 9947
16977 4315 242 
16978 8179 7246
16979 4240 4641
16980 1346 3478
16981 9718 2375
16982 1989 2208
16983 2787 2589
16984 7805 7107
16985 7804 25  
16986 9219 9647
16987 7400 2275
16988 388  657 
16989 3785 9270
16990 4772 6522
16991 5338 8100
16992 4532 3400
16993 346  9072
16994 6318 6729
16995 8679 2959
16996 3621 4284
16997 1064 1616
16998 6262 9482
16999 4518 3996
17000 2755 3516
17001 4417 5216
17002 4549 9949
17003 3108 4391
17004 1313 5196
17005 4404 7231
17006 2922 7193
17007 5860 9648
17008 630  7801
17009 5571 5995
17010 4149 7582
17011 9298 6709
17012 8776 6160
17013 2519 7506
17014 8101 6531
17015 1587 8360
17016 5168 5893
17017 7732 1365
17018 2906 9414
17019 5875 5576
17020 1471 2829
17021 5959 176 
17022 4377 9556
17023 9400 2410
17024 6914 6193
17025 7775 5756
17026 137  1370
17027 3629 4033
17028 7750 6091
17029 5396 1921
17030 9544 3581
17031 4891 9860
17032 177  7822
17033 3289 1213
17034 9939 4297
17035 8075 2117
17036 9792 7602
17037 459  3933
17038 7095 1056
17039 1806 5858
17040 9267 3701
17041 6704 4139
17042 1420 7374
17043 7571 5552
17044 2929 4032
17045 8759 2301
17046 3707 7473
17047 6620 9979
17048 8918 6411
17049 4224 2241
17050 3377 8650
17051 1741 8636
17052 7875 9905
17053 1344 3677
17054 1841 7208
17055 3963 5626
17056 7579 9716
17057 3259 826 
17058 4797 2046
17059 8247 488 
17060 6182 1278
17061 5937 5589
17062 3293 535 
17063 2760 9906
17064 4218 818 
17065 349  1063
17066 2716 9154
17067 6423 3014
17068 9142 9848
17069 6401 289 
17070 8843 4357
17071 114  580 
17072 4692 4875
17073 7689 3401
17074 8338 2730
17075 3805 5598
17076 3912 9076
17077 3105 8658
17078 9693 5729
17079 8220 8666
17080 7521 7712
17081 8494 2888
17082 3738 2393
17083 5512 6116
17084 5798 274 
17085 4788 9400
17086 4461 1337
17087 4586 3438
17088 5697 4022
17089 687  4951
17090 9821 960 
17091 4298 981 
17092 2697 504 
17093 2028 5916
17094 5075 9514
17095 8798 3803
17096 9815 6803
17097 1407 2630
17098 6783 6045
17099 1269 4949
17100 3958 3352
17101 9460 1451
17102 5233 1976
17103 3784 366 
17104 2229 4244
17105 158  119 
17106 3399 2192
17107 6903 1350
17108 5120 4642
17109 6934 5502
17110 4260 5990
17111 6297 7410
17112 9857 1170
17113 3773 3756
17114 6350 5205
17115 1326 3220
17116 6794 6345
17117 2011 5164
17118 8452 7546
17119 5309 588 
17120 8272 7286
17121 8318 7858
17122 9574 7912
17123 4704 9497
17124 4189 3717
17125 7797 7155
17126 519  9199
17127 2243 6774
17128 9966 8062
17129 7796 3062
17130 7607 2321
17131 1285 5581
17132 4982 425 
17133 7004 9891
17134 5648 2305
17135 4628 9703
17136 8745 6641
17137 7337 6852
17138 4097 3146
17139 7864 9633
17140 3386 5389
17141 2817 1866
17142 8061 7248
17143 992  3356
17144 8876 2860
17145 4586 155 
17146 2609 3378
17147 7335 899 
17148 9004 1460
17149 6345 6613
17150 4012 9477
17151 2690 4313
17152 9368 5386
17153 6357 7054
17154 1336 1470
17155 7385 8426
17156 8988 3780
17157 3529 4302
17158 75   1220
17159 7084 4288
17160 2560 6937
17161 1081 4901
17162 5244 2325
17163 599  3562
17164 8735 4975
17165 9599 2317
17166 9203 4864
17167 5406 50  
17168 5395 2539
17169 3802 2894
17170 5921 4758
17171 2694 5404
17172 7986 3172
17173 4785 1941
17174 5201 5240
17175 237  5780
17176 6327 3699
17177 4120 6376
17178 6602 6425
17179 8497 437 
17180 6238 9892
17181 8495 2543
17182 6596 5242
17183 538  1080
17184 7571 3026
17185 3578 4072
17186 6524 2644
17187 4123 6748
17188 6127 5615
17189 1964 2414
17190 5255 6337
17191 5178 1338
17192 4361 5896
17193 9707 8828
17194 507  8336
17195 8726 2593
17196 2996 1585
17197 3216 7628
17198 9648 6022
17199 2098 2944
17200 6595 7609
17201 3341 623 
17202 4387 5521
17203 8757 4818
17204 4363 9139
17205 1017 2244
17206 9894 3494
17207 4016 126 
17208 5618 3381
17209 3524 444 
17210 7085 9729
17211 7487 5842
17212 9980 1770
17213 4990 9026
17214 7644 4310
17215 1562 2818
17216 6788 6025
17217 2671 9271
17218 5895 94  
17219 5613 7655
17220 3889 5590
17221 3923 1398
17222 4191 770 
17223 976  5721
17224 7728 5103
17225 1257 3576
17226 9739 1497
17227 151  8367
17228 3193 8055
17229 8523 3665
17230 6293 2760
17231 7601 1838
17232 6888 3641
17233 8660 1113
17234 9227 73  
17235 5950 118 
17236 4647 8196
17237 7877 5154
17238 9880 5257
17239 4365 7895
17240 7372 4577
17241 1196 8032
17242 2517 2940
17243 9242 1449
17244 9033 3684
17245 2661 4790
17246 8138 8291
17247 5499 7830
17248 8211 8831
17249 4113 8316
17250 9364 3615
17251 2562 3674
17252 7466 871 
17253 3364 603 
17254 4868 3415
17255 3421 2338
17256 7468 1916
17257 643  5093
17258 1274 5047
17259 5080 3120
17260 7984 1506
17261 6227 2361
17262 59   7275
17263 8178 5884
17264 7309 7061
17265 4607 7069
17266 938  9867
17267 8547 1677
17268 4771 4951
17269 2494 3165
17270 2795 8085
17271 608  6551
17272 9833 9869
17273 7309 2116
17274 7186 957 
17275 7792 1440
17276 7163 7716
17277 3966 7948
17278 7720 7468
17279 385  590 
17280 4648 8052
17281 5097 2423
17282 2475 3411
17283 6074 9781
17284 6864 7760
17285 9953 58  
17286 2486 881 
17287 3149 2703
17288 2121 8819
17289 1857 671 
17290 8494 8138
17291 1761 5110
17292 4756 2763
17293 7381 2878
17294 3584 3332
17295 9908 1800
17296 2926 4782
17297 2843 4675
17298 2535 706 
17299 2967 7065
17300 6785 7906
17301 3197 2514
17302 1684 4547
17303 8804 7578
17304 3226 132 
17305 5231 5458
17306 5111 8143
17307 7975 9643
17308 7347 4276
17309 7632 8199
17310 862  5071
17311 5505 3867
17312 9418 4837
17313 1230 4325
17314 7136 7864
17315 1591 3253
17316 3566 5568
17317 7742 9573
17318 8198 1338
17319 1762 2595
17320 9368 1205
17321 4337 2003
17322 6277 1930
17323 7566 3006
17324 7868 6410
17325 5348 3375
17326 2831 5866
17327 8171 5558
17328 3217 8694
17329 5145 847 
17330 9594 3087
17331 7516 1220
17332 3942 5767
17333 7538 4507
17334 2181 1999
17335 6649 9070
17336 1810 9729
17337 1995 870 
17338 2946 8486
17339 9493 378 
17340 3166 4928
17341 9927 3041
17342 5026 8363
17343 3281 4254
17344 1443 8393
17345 6819 8019
17346 3916 7560
17347 1601 1041
17348 2231 6980
17349 7961 778 
17350 5293 5585
17351 643  9276
17352 5554 8963
17353 5293 539 
17354 7258 9419
17355 7373 2773
17356 5124 331 
17357 2053 4772
17358 7408 7940
17359 5269 579 
17360 4707 5823
17361 1565 5388
17362 1012 7462
17363 4187 1963
17364 255  5591
17365 2618 6534
17366 1435 3651
17367 8260 2473
17368 8329 8974
17369 9557 7488
17370 7635 1328
17371 2742 2095
17372 7433 5130
17373 1925 1533
17374 4782 3908
17375 2598 1593
17376 8650 3959
17377 2659 4622
17378 8279 3922
17379 4960 961 
17380 8539 1621
17381 7120 7080
17382 4953 8435
17383 9348 1430
17384 5561 170 
17385 5956 5226
17386 792  7133
17387 557  423 
17388 3682 1304
17389 8047 1093
17390 3286 9283
17391 5197 7929
17392 9010 9592
17393 3379 7217
17394 3586 7844
17395 8384 9431
17396 9657 413 
17397 1923 1890
17398 3012 1421
17399 3046 6964
17400 8940 4438
17401 7026 1652
17402 1371 443 
17403 7250 4687
17404 9736 7478
17405 2823 6284
17406 8015 1795
17407 8616 927 
17408 6841 2134
17409 8500 49  
17410 2390 5599
17411 3917 9016
17412 7970 9490
17413 8931 2152
17414 9452 6539
17415 7099 4087
17416 598  5986
17417 8719 8183
17418 7957 8784
17419 4491 6123
17420 1140 7683
17421 6695 9144
17422 3640 9796
17423 6286 6028
17424 1040 9312
17425 1102 8994
17426 4152 9991
17427 7028 3775
17428 7515 403 
17429 4797 1157
17430 6660 4811
17431 9033 7693
17432 9891 822 
17433 5892 9381
17434 9952 5456
17435 533  9520
17436 5502 9621
17437 193  4634
17438 4080 7420
17439 1473 8050
17440 9085 887 
17441 5581 4691
17442 5651 7078
17443 3115 626 
17444 4140 1079
17445 1982 568 
17446 7470 8830
17447 4246 4091
17448 9267 6330
17449 1836 421 
17450 9077 3390
17451 48   4123
17452 8037 1397
17453 3856 5774
17454 7695 8432
17455 4163 4772
17456 4284 8978
17457 786  7052
17458 3483 8049
17459 4056 752 
17460 3756 529 
17461 3915 9837
17462 1963 6850
17463 2120 2293
17464 9553 8322
17465 2777 9832
17466 2680 9053
17467 5095 448 
17468 9369 4984
17469 9995 9083
17470 2554 5393
17471 7556 885 
17472 9596 7340
17473 1209 1918
17474 9038 5776
17475 5119 556 
17476 377  9069
17477 1583 4957
17478 9046 3655
17479 41   7851
17480 6837 4019
17481 7148 5263
17482 4261 1855
17483 8961 6316
17484 7826 9240
17485 3791 2878
17486 1181 2474
17487 690  7696
17488 7612 1666
17489 9875 8406
17490 1901 2463
17491 8864 4321
17492 7214 1529
17493 8631 7254
17494 5920 8941
17495 1694 6027
17496 2785 7464
17497 2629 2351
17498 9600 8380
17499 584  452 
17500 8136 8729
17501 718  9264
17502 4728 4123
17503 3073 8827
17504 9787 5000
17505 1635 3663
17506 1419 5502
17507 9442 8146
17508 2417 1323
17509 8296 9811
17510 2552 5153
17511 6259 3361
17512 515  1189
17513 5074 2703
17514 9275 2607
17515 7706 4608
17516 704  1605
17517 8245 3568
17518 2584 9450
17519 7415 4926
17520 8055 3631
17521 155  5256
17522 6207 61  
17523 8318 7331
17524 8612 4409
17525 9330 82  
17526 7076 3521
17527 5923 3320
17528 5605 7346
17529 29   4374
17530 9956 1965
17531 1974 1373
17532 1877 2574
17533 822  5176
17534 2191 8714
17535 9390 1321
17536 6755 1701
17537 3309 9785
17538 618  3899
17539 4655 1235
17540 7176 7001
17541 6325 6169
17542 431  1059
17543 9059 722 
17544 1169 1155
17545 6891 3332
17546 3357 8204
17547 9664 9865
17548 9128 7343
17549 6606 5124
17550 2230 5553
17551 1175 4936
17552 414  3319
17553 5029 786 
17554 4737 4755
17555 5720 9688
17556 3606 4637
17557 7399 5962
17558 9580 3892
17559 5327 3522
17560 1392 1220
17561 3252 3540
17562 4894 3543
17563 5393 4537
17564 4492 6942
17565 5827 2151
17566 5387 7506
17567 3899 980 
17568 1518 9442
17569 9636 1835
17570 3918 5131
17571 6063 7949
17572 8570 8142
17573 4042 5970
17574 235  87  
17575 5187 9362
17576 5822 3231
17577 3172 4628
17578 5008 5413
17579 1402 3540
17580 3207 7116
17581 3468 8199
17582 8180 2059
17583 132  6381
17584 531  8461
17585 4381 1798
17586 1853 3804
17587 2931 3177
17588 7538 2374
17589 3820 6716
17590 2905 5290
17591 6545 5471
17592 5888 561 
17593 9981 1069
17594 9149 9325
17595 5447 3562
17596 5135 3364
17597 4027 4155
17598 7691 617 
17599 9443 6931
17600 3208 5392
17601 1552 77  
17602 2290 4746
17603 5143 3039
17604 1566 6286
17605 3946 9894
17606 4399 9194
17607 2989 9051
17608 8747 5818
17609 6204 4569
17610 7187 9163
17611 1538 6919
17612 8305 6974
17613 4462 2520
17614 5756 2285
17615 6373 2140
17616 7208 6075
17617 1264 9607
17618 6176 1440
17619 6062 775 
17620 6035 8101
17621 2975 3894
17622 5054 298 
17623 7756 4156
17624 5069 6723
17625 7512 7036
17626 5112 4601
17627 5438 3871
17628 1301 5848
17629 8775 2965
17630 7211 6692
17631 9185 3951
17632 5319 2245
17633 3305 5457
17634 4672 3748
17635 3267 6244
17636 7508 2766
17637 4564 5198
17638 3481 9337
17639 3066 3806
17640 2728 6568
17641 2325 9413
17642 938  1431
17643 2482 9310
17644 9160 7629
17645 9714 5191
17646 886  7155
17647 4857 9984
17648 5485 8049
17649 5892 9044
17650 5897 6982
17651 8659 8713
17652 795  4725
17653 1414 9226
17654 6721 7268
17655 4510 156 
17656 9839 9501
17657 4258 7052
17658 376  8940
17659 2112 7060
17660 7810 9899
17661 8132 2382
17662 5106 2660
17663 4928 6672
17664 6999 4364
17665 1160 6011
17666 3548 3589
17667 6377 1921
17668 2666 4117
17669 8619 3169
17670 5686 103 
17671 5507 6183
17672 9561 6632
17673 5645 6133
17674 2985 8143
17675 1262 5421
17676 4562 2727
17677 9043 8962
17678 9864 9906
17679 270  9717
17680 5700 4542
17681 9957 3460
17682 3033 9067
17683 8637 711 
17684 9291 1378
17685 590  4611
17686 5053 2393
17687 481  2531
17688 8370 1040
17689 8518 8180
17690 9537 3772
17691 9186 9573
17692 2118 1967
17693 7137 9716
17694 5613 8011
17695 3218 2914
17696 9122 3137
17697 7317 7903
17698 5237 3007
17699 9784 3202
17700 3758 7956
17701 7210 957 
17702 522  8927
17703 6882 9619
17704 7896 2844
17705 6728 6764
17706 9715 1627
17707 2368 8689
17708 1897 6383
17709 9631 1486
17710 2247 9176
17711 3614 829 
17712 7452 3176
17713 2757 2836
17714 9658 5700
17715 5998 2659
17716 9716 8566
17717 3599 3284
17718 5304 998 
17719 1200 1352
17720 8589 3429
17721 6790 1621
17722 7968 1425
17723 5802 8797
17724 4061 4286
17725 937  8707
17726 9272 1891
17727 344  9857
17728 4895 9973
17729 6031 1978
17730 2666 8734
17731 6901 9686
17732 9863 1124
17733 4343 9187
17734 1235 8322
17735 3584 7266
17736 1394 490 
17737 3063 5145
17738 456  7524
17739 5147 1817
17740 3967 7792
17741 2248 3658
17742 2646 586 
17743 3980 4483
17744 2328 9372
17745 8872 2357
17746 8058 5073
17747 1365 2130
17748 4103 8006
17749 7599 6005
17750 6151 6413
17751 4577 4904
17752 7402 5141
17753 7641 1256
17754 4944 760 
17755 4562 6219
17756 7125 4539
17757 7135 1454
17758 3253 2527
17759 2863 3111
17760 9037 7286
17761 4728 7549
17762 3650 8137
17763 509  1875
17764 8753 6474
17765 4857 6495
17766 7190 7634
17767 6998 392 
17768 975  2483
17769 4628 1271
17770 3347 3568
17771 1810 4632
17772 9904 413 
17773 7410 8548
17774 8593 5001
17775 5734 8198
17776 4021 5826
17777 3867 7687
17778 8432 827 
17779 8691 2498
17780 5692 961 
17781 5830 6484
17782 6759 2812
17783 8302 879 
17784 5076 9830
17785 5979 1448
17786 7896 1854
17787 2368 3886
17788 1933 9402
17789 1635 1043
17790 2930 1180
17791 2054 6806
17792 6050 8152
17793 5149 5905
17794 2816 3865
17795 8319 6051
17796 8634 1889
17797 9084 2077
17798 1946 2375
17799 2472 5156
17800 7453 3174
17801 1540 1031
17802 5253 5254
17803 5995 2464
17804 633  6528
17805 5245 7597
17806 3326 2169
17807 197  5538
17808 7769 6774
17809 5834 3938
17810 1447 7510
17811 8985 5398
17812 4501 8152
17813 4668 7295
17814 2649 1483
17815 1163 8746
17816 6294 1229
17817 2766 8589
17818 2169 3659
17819 9491 5297
17820 9949 9781
17821 1123 5525
17822 804  25  
17823 7196 8243
17824 375  1380
17825 2116 3049
17826 9413 8697
17827 5279 4662
17828 7260 1440
17829 3703 4659
17830 8700 8489
17831 3003 9584
17832 7456 5189
17833 6367 7170
17834 6459 8287
17835 9206 9889
17836 4479 3221
17837 2546 643 
17838 7031 5788
17839 1522 4293
17840 8411 6349
17841 798  5983
17842 1433 8513
17843 3436 2155
17844 61   1401
17845 6239 7381
17846 9139 3989
17847 7756 9346
17848 4006 3879
17849 4178 8537
17850 7757 6052
17851 3841 1232
17852 1564 5620
17853 6607 9746
17854 5968 5076
17855 1724 6279
17856 89   5193
17857 5874 9290
17858 2443 8625
17859 3831 4016
17860 3296 7088
17861 4148 6031
17862 5517 6516
17863 9878 4697
17864 2517 2563
17865 2650 4424
17866 5032 6694
17867 7740 5561
17868 5439 732 
17869 7458 1991
17870 2983 8686
17871 2760 6039
17872 4114 5762
17873 2749 2857
17874 4533 1501
17875 5208 781 
17876 3345 3319
17877 6536 5551
17878 9774 5514
17879 1639 6714
17880 8596 5461
17881 9663 4005
17882 5492 4673
17883 3579 3884
17884 6504 2346
17885 88   4730
17886 2750 3388
17887 8176 8718
17888 4653 7562
17889 2234 371 
17890 1293 5248
17891 2431 4477
17892 9434 6971
17893 8326 2529
17894 8998 7839
17895 9433 8469
17896 8587 716 
17897 7921 8367
17898 968  8067
17899 3010 8905
17900 276  9621
17901 8418 8863
17902 2612 5533
17903 9257 8400
17904 5350 6679
17905 568  6828
17906 5421 8019
17907 601  8887
17908 1731 4297
17909 6692 3307
17910 8028 3556
17911 4711 5306
17912 3051 3145
17913 7416 856 
17914 7935 2327
17915 8233 673 
17916 5565 660 
17917 5910 3227
17918 9651 7834
17919 2677 4643
17920 6693 7247
17921 797  4995
17922 9564 235 
17923 6598 5404
17924 582  6954
17925 6033 1921
17926 6078 5288
17927 356  2303
17928 9427 658 
17929 561  1418
17930 6944 7217
17931 1747 4951
17932 7677 2795
17933 9423 1380
17934 4101 1535
17935 9867 2141
17936 5272 8153
17937 7581 162 
17938 9034 3176
17939 6635 9479
17940 889  7485
17941 9054 4686
17942 5932 2855
17943 3317 930 
17944 8562 2807
17945 9071 8812
17946 4648 7596
17947 7567 4857
17948 757  7549
17949 9439 8086
17950 1676 2047
17951 317  1424
17952 5189 9348
17953 4594 9155
17954 1223 6409
17955 152  7859
17956 197  3940
17957 5060 7497
17958 2795 3112
17959 934  1599
17960 1866 7663
17961 6789 7508
17962 6274 7001
17963 2031 8659
17964 62   6714
17965 3423 5351
17966 9904 3450
17967 9902 6556
17968 4665 9285
17969 8382 439 
17970 1111 1908
17971 2584 1923
17972 6682 3684
17973 1544 5403
17974 7326 524 
17975 177  9959
17976 172  1489
17977 1193 6841
17978 1527 7647
17979 400  9084
17980 2106 4676
17981 5354 7714
17982 6089 2817
17983 3194 2362
17984 4706 9310
17985 5541 3311
17986 7960 9677
17987 5081 9992
17988 9273 8477
17989 1170 2508
17990 1661 1280
17991 4836 9305
17992 3489 3915
17993 8562 1312
17994 52   3641
17995 3188 917 
17996 9691 6803
17997 6710 2322
17998 5679 9255
17999 3040 7996
18000 1484 2657
18001 163  8703
18002 6017 8755
18003 9841 7532
18004 9265 7729
18005 8771 5027
18006 3093 4096
18007 5797 1515
18008 7972 7464
18009 2404 8112
18010 3188 1353
18011 1823 5591
18012 5817 3734
18013 351  2128
18014 9896 7   
18015 1314 8953
18016 1813 7694
18017 2674 4205
18018 1303 6001
18019 8311 2934
18020 8030 9905
18021 6733 6059
18022 5754 4660
18023 507  5784
18024 9487 6430
18025 3368 8756
18026 288  8127
18027 4175 7634
18028 6715 1993
18029 3944 9944
18030 1270 753 
18031 5226 9441
18032 3650 9304
18033 1671 5402
18034 3473 2815
18035 1245 7035
18036 8895 6853
18037 7606 5231
18038 2605 7173
18039 9671 5195
18040 9093 6882
18041 367  4955
18042 1825 657 
18043 7107 4021
18044 6721 1810
18045 1342 4860
18046 3522 4813
18047 2444 3524
18048 1736 6594
18049 4904 3841
18050 9885 704 
18051 9778 5683
18052 6547 7923
18053 1003 3458
18054 10   4847
18055 8574 2896
18056 7180 9418
18057 3171 3857
18058 7474 22  
18059 7677 8360
18060 6160 6692
18061 4286 852 
18062 425  2115
18063 516  3374
18064 4438 883 
18065 1606 8098
18066 4405 3846
18067 6808 4395
18068 1051 8515
18069 5624 4606
18070 3432 8171
18071 7575 3106
18072 763  7370
18073 6258 6822
18074 7854 7138
18075 4741 418 
18076 732  1446
18077 7991 8985
18078 3463 468 
18079 3023 6737
18080 3415 2387
18081 222  384 
18082 1184 3664
18083 4950 8358
18084 3469 8201
18085 4930 5415
18086 6307 3552
18087 4659 8464
18088 6349 6980
18089 9483 1427
18090 3592 695 
18091 9131 5541
18092 2990 1306
18093 9758 2218
18094 661  4331
18095 1805 7075
18096 6497 7593
18097 5500 3917
18098 321  6314
18099 277  5588
18100 9929 4590
18101 9918 6414
18102 4353 4925
18103 2112 8616
18104 4942 2588
18105 9484 7266
18106 729  8753
18107 1852 9213
18108 1351 6043
18109 2746 2693
18110 8766 7082
18111 2801 2678
18112 1749 4645
18113 2278 4346
18114 9969 4452
18115 1902 1701
18116 8032 5838
18117 4694 6319
18118 5751 3400
18119 5582 7919
18120 1375 1192
18121 3758 1563
18122 5940 871 
18123 9549 8167
18124 1957 4374
18125 95   8478
18126 6115 475 
18127 2995 6673
18128 5715 9007
18129 141  2108
18130 5391 8039
18131 1991 3228
18132 8883 5866
18133 3672 4797
18134 8532 7019
18135 5953 5298
18136 8100 2594
18137 9781 5708
18138 2775 5613
18139 9102 8375
18140 8590 406 
18141 3818 706 
18142 172  6145
18143 3737 8595
18144 8128 5106
18145 7143 4502
18146 7329 2059
18147 7254 3316
18148 8788 3993
18149 65   6733
18150 119  1443
18151 1740 3871
18152 9737 1936
18153 3583 2360
18154 2575 3079
18155 2871 9359
18156 7206 4553
18157 6272 5550
18158 5341 3914
18159 5604 2444
18160 2129 5497
18161 5020 7449
18162 1754 7040
18163 5895 1446
18164 6456 5829
18165 3234 3661
18166 994  9187
18167 8635 965 
18168 2870 4109
18169 1461 8414
18170 4354 8896
18171 8142 7489
18172 5861 3162
18173 6618 2660
18174 9759 3796
18175 3502 8916
18176 8496 9676
18177 5382 9779
18178 6661 3473
18179 1875 154 
18180 5340 8361
18181 7605 2397
18182 5727 922 
18183 4073 2396
18184 2109 1572
18185 2056 1712
18186 6922 6979
18187 4060 3705
18188 6543 2629
18189 4127 3082
18190 7616 2361
18191 789  7233
18192 2320 1757
18193 5980 8962
18194 2416 4442
18195 7915 3660
18196 7693 3328
18197 3580 6236
18198 1622 6089
18199 1509 2688
18200 3228 5208
18201 8455 2293
18202 9345 8873
18203 5515 1307
18204 206  4245
18205 8563 543 
18206 1036 6465
18207 4322 277 
18208 4126 6008
18209 9919 3378
18210 6256 6627
18211 5484 8025
18212 3312 2690
18213 7518 1361
18214 1226 7630
18215 3891 940 
18216 4958 7813
18217 9789 4590
18218 5612 1505
18219 3535 6553
18220 5487 9268
18221 6199 5973
18222 4971 5204
18223 3621 5429
18224 8828 1400
18225 4327 6017
18226 2785 8666
18227 6539 7157
18228 6735 4496
18229 9782 6014
18230 5129 4743
18231 7473 4367
18232 8763 5941
18233 2246 5027
18234 3295 2561
18235 483  9438
18236 1394 8262
18237 4988 8730
18238 6741 751 
18239 2854 1863
18240 8527 619 
18241 6986 4993
18242 4740 3683
18243 4057 169 
18244 4240 529 
18245 3854 6802
18246 4894 9206
18247 7646 8977
18248 7050 5966
18249 7696 2611
18250 9988 2949
18251 1414 4013
18252 8135 4209
18253 8074 9434
18254 3213 1972
18255 4717 8580
18256 4925 3638
18257 7344 9398
18258 849  2711
18259 3587 3869
18260 3948 8252
18261 9518 8759
18262 3736 8350
18263 8470 6807
18264 3606 1943
18265 978  4248
18266 3519 8261
18267 3018 6854
18268 9459 2062
18269 9896 7166
18270 3869 900 
18271 2089 8083
18272 6014 8391
18273 2838 1135
18274 7285 3327
18275 1506 8918
18276 4773 1237
18277 2260 7489
18278 8125 6858
18279 5206 4416
18280 5471 4900
18281 1211 6770
18282 7731 6971
18283 3488 1585
18284 1129 4370
18285 7199 5694
18286 9202 5942
18287 3873 6555
18288 8910 6183
18289 3587 2709
18290 8994 7383
18291 5631 4981
18292 3469 2113
18293 2627 3170
18294 9327 4578
18295 2061 2832
18296 5920 9095
18297 350  2282
18298 3100 3623
18299 8084 5712
18300 9562 5428
18301 1965 334 
18302 5501 2186
18303 563  1592
18304 3259 2859
18305 4650 2388
18306 4117 6769
18307 545  7297
18308 8830 6178
18309 846  3128
18310 6112 8780
18311 3513 6176
18312 6684 4026
18313 7330 8261
18314 8567 3053
18315 4234 3493
18316 5826 7261
18317 5025 1430
18318 9819 9803
18319 6002 649 
18320 9984 2775
18321 9068 5152
18322 5469 8596
18323 9168 4057
18324 637  8132
18325 6897 336 
18326 7047 9897
18327 984  381 
18328 4773 4816
18329 6673 8135
18330 4515 5751
18331 8839 883 
18332 288  3467
18333 7565 840 
18334 8332 395 
18335 9243 6303
18336 3301 9448
18337 5480 5048
18338 2423 101 
18339 3790 5   
18340 766  361 
18341 8707 894 
18342 42   853 
18343 4415 3608
18344 5616 6286
18345 1725 2575
18346 8306 5834
18347 982  9950
18348 4039 2883
18349 2272 8891
18350 7604 5528
18351 4084 3584
18352 5804 5848
18353 5701 8878
18354 7680 2475
18355 1737 1786
18356 4444 3634
18357 9347 2840
18358 4848 2462
18359 9061 6631
18360 177  5652
18361 1697 6501
18362 25   6113
18363 2937 8348
18364 3590 7461
18365 1051 2839
18366 4466 1848
18367 1960 9686
18368 5662 8766
18369 7945 7525
18370 7600 3315
18371 1819 7203
18372 2634 6858
18373 1045 6367
18374 6226 5151
18375 7074 6192
18376 2817 1368
18377 8240 7486
18378 6110 1399
18379 870  8800
18380 4486 4373
18381 9031 4728
18382 3697 7732
18383 5584 688 
18384 8778 9841
18385 4971 3010
18386 1942 4964
18387 4592 9038
18388 730  432 
18389 6521 1173
18390 3416 5355
18391 3579 3933
18392 7476 4729
18393 7939 5184
18394 3827 672 
18395 7784 4228
18396 9366 962 
18397 6774 3442
18398 8403 5024
18399 1852 5449
18400 6005 62  
18401 6403 8434
18402 714  1652
18403 6932 5030
18404 9148 952 
18405 1221 6878
18406 8033 6874
18407 4883 3514
18408 8997 2553
18409 3288 8171
18410 517  7069
18411 3211 7494
18412 6239 4769
18413 1790 5437
18414 1908 6729
18415 8433 6075
18416 2762 2757
18417 8384 4954
18418 188  1207
18419 3741 5727
18420 9891 3965
18421 4312 9045
18422 861  6845
18423 3494 3995
18424 1861 3581
18425 5453 5878
18426 6341 8873
18427 1798 1802
18428 7284 2141
18429 9574 7761
18430 3456 9794
18431 2487 2449
18432 2291 3600
18433 8395 6044
18434 9136 8610
18435 4215 7424
18436 7093 2610
18437 2294 4375
18438 4104 9378
18439 8665 50  
18440 7833 152 
18441 3402 7343
18442 9596 47  
18443 7941 9271
18444 9848 3880
18445 6684 9168
18446 3890 7822
18447 4155 6579
18448 3995 6448
18449 835  3153
18450 1921 4094
18451 9689 3753
18452 8196 5963
18453 7632 5239
18454 1440 4240
18455 8769 2780
18456 1808 2063
18457 5658 2961
18458 2968 7543
18459 9101 7690
18460 8939 5197
18461 1501 4635
18462 4124 4241
18463 8239 8375
18464 3383 6071
18465 3145 4307
18466 3313 4693
18467 8961 3370
18468 2500 8254
18469 9386 5775
18470 6612 8120
18471 2652 5194
18472 9226 9968
18473 6490 2240
18474 2854 2841
18475 6071 7003
18476 4854 5940
18477 8077 782 
18478 6113 6938
18479 7386 4497
18480 2209 2013
18481 9574 1243
18482 7450 6927
18483 468  204 
18484 1626 4865
18485 10   5840
18486 9961 4897
18487 7961 506 
18488 4223 5708
18489 9178 1485
18490 4279 3047
18491 8204 1430
18492 5683 6293
18493 4986 4544
18494 7544 4259
18495 4805 1748
18496 8100 6742
18497 4205 8319
18498 225  7870
18499 810  6425
18500 7510 2606
18501 296  4010
18502 7012 4110
18503 8211 1451
18504 4805 1064
18505 898  5842
18506 7525 4094
18507 5863 4154
18508 9225 4316
18509 228  5014
18510 6040 3298
18511 3087 3396
18512 7174 1040
18513 7257 638 
18514 148  1186
18515 9020 8950
18516 2155 9719
18517 8471 8910
18518 7742 4650
18519 826  7633
18520 3064 5068
18521 8970 5468
18522 3487 476 
18523 7434 939 
18524 1818 9567
18525 7152 1050
18526 4267 2671
18527 7546 3398
18528 4384 9690
18529 2847 8452
18530 493  4591
18531 8537 1676
18532 7131 9412
18533 8446 6474
18534 2960 3678
18535 7638 7130
18536 6208 9224
18537 2798 2327
18538 2701 7939
18539 2802 8189
18540 7161 5346
18541 6485 5229
18542 7242 6980
18543 4303 5780
18544 7606 3633
18545 6604 1113
18546 6028 1764
18547 5896 1102
18548 2425 7005
18549 3511 3088
18550 7079 4353
18551 4463 4511
18552 6855 4830
18553 9207 1071
18554 6226 1589
18555 1008 536 
18556 6034 1547
18557 5563 1781
18558 6199 5015
18559 7104 2066
18560 5330 1151
18561 8156 2183
18562 1352 2148
18563 9573 2436
18564 8120 6973
18565 3452 8766
18566 2443 5348
18567 315  3851
18568 1208 1682
18569 2405 3600
18570 8671 3634
18571 6074 4523
18572 2181 5732
18573 8280 2152
18574 6807 6324
18575 4629 6436
18576 4833 2750
18577 8075 5543
18578 3095 4517
18579 4630 8858
18580 1142 7027
18581 8781 9041
18582 1736 8699
18583 7952 4132
18584 8402 548 
18585 5378 7905
18586 5125 6391
18587 6239 75  
18588 6297 9373
18589 6681 6398
18590 6905 2943
18591 4792 601 
18592 9755 3793
18593 7027 873 
18594 3084 9957
18595 5933 5351
18596 2844 161 
18597 1449 4562
18598 4353 1213
18599 9777 4251
18600 8057 2462
18601 4688 2747
18602 1269 998 
18603 8608 5438
18604 5828 5345
18605 9320 1140
18606 3938 6711
18607 1786 4894
18608 3458 8355
18609 8107 6225
18610 2431 8334
18611 4383 2321
18612 1027 6824
18613 1037 1319
18614 7026 1574
18615 6631 917 
18616 6465 9252
18617 3055 9546
18618 9811 9782
18619 4883 2879
18620 9261 7169
18621 8649 8885
18622 5867 7071
18623 5448 8822
18624 7365 986 
18625 9255 191 
18626 2705 3737
18627 4907 4358
18628 8837 1822
18629 2782 2988
18630 2120 9219
18631 2968 80  
18632 1531 5702
18633 3515 5521
18634 5201 5807
18635 1316 5513
18636 7353 6053
18637 4925 8437
18638 6446 9336
18639 5319 528 
18640 6237 6885
18641 5884 3526
18642 7815 2944
18643 57   3858
18644 4721 8897
18645 6991 1244
18646 5835 1179
18647 6592 7812
18648 749  4086
18649 7847 4948
18650 7804 2340
18651 3720 8170
18652 6777 5270
18653 211  8095
18654 7530 2507
18655 1653 2727
18656 6432 5912
18657 5554 6641
18658 7643 1150
18659 296  1936
18660 7658 5462
18661 7232 7522
18662 1665 2424
18663 6477 4900
18664 5640 9440
18665 5192 2549
18666 4415 2906
18667 3456 8556
18668 4067 2687
18669 4062 8604
18670 9063 4125
18671 846  758 
18672 2005 7706
18673 3669 860 
18674 6574 9325
18675 1870 3136
18676 8827 2668
18677 3689 3033
18678 5263 2357
18679 5755 9318
18680 9875 9295
18681 5709 6962
18682 2056 6642
18683 2205 91  
18684 8385 4044
18685 5164 8005
18686 7328 7990
18687 3925 4181
18688 332  6496
18689 547  8961
18690 5380 6412
18691 1841 4497
18692 3385 5648
18693 6648 7496
18694 1508 8499
18695 3921 1739
18696 4135 1989
18697 379  7272
18698 4563 4415
18699 937  3273
18700 8015 4104
18701 9539 6428
18702 9406 1145
18703 8232 3727
18704 9236 4525
18705 7043 482 
18706 8784 4191
18707 1979 2606
18708 3573 343 
18709 1402 9576
18710 6932 2509
18711 6463 7964
18712 2685 2748
18713 353  4178
18714 3770 9994
18715 5890 6781
18716 6751 3463
18717 1335 7857
18718 8539 6814
18719 3743 8421
18720 930  4288
18721 6967 7841
18722 1427 9280
18723 3969 2114
18724 9326 1893
18725 9987 9172
18726 9757 6389
18727 2011 3891
18728 1299 3380
18729 568  2858
18730 385  9293
18731 7212 5029
18732 4564 4701
18733 4999 3657
18734 750  5784
18735 2895 4358
18736 7865 2382
18737 8814 1269
18738 3993 6120
18739 3122 1182
18740 766  6866
18741 7679 4070
18742 835  3543
18743 7308 3194
18744 3449 8556
18745 2829 9884
18746 1450 3540
18747 4957 8686
18748 9712 9132
18749 174  4106
18750 8237 5175
18751 8943 3417
18752 8997 7534
18753 5021 8856
18754 5332 3213
18755 2375 8590
18756 7093 6671
18757 6403 7262
18758 820  2109
18759 7078 1040
18760 4990 9773
18761 9483 7963
18762 9055 6848
18763 8997 7330
18764 6099 5055
18765 3273 9824
18766 8711 5465
18767 406  3923
18768 3098 4868
18769 1530 711 
18770 4921 8419
18771 2893 7469
18772 2141 6152
18773 833  8667
18774 8225 147 
18775 2259 9537
18776 6542 2045
18777 3515 155 
18778 9023 4899
18779 8321 9889
18780 5964 2838
18781 9433 3321
18782 8326 4341
18783 874  5199
18784 2269 2596
18785 9325 9151
18786 6605 3626
18787 4540 767 
18788 9097 7394
18789 2622 3316
18790 184  8908
18791 3506 3922
18792 539  9468
18793 3111 233 
18794 1438 1243
18795 5260 8432
18796 8442 6288
18797 482  4869
18798 9396 4399
18799 8102 6955
18800 3581 3957
18801 179  5004
18802 6171 841 
18803 2529 6324
18804 6402 7004
18805 7005 9651
18806 146  5893
18807 6753 6958
18808 5664 3079
18809 2286 4023
18810 2829 6965
18811 569  9930
18812 9270 3348
18813 4762 1486
18814 8144 1194
18815 4317 566 
18816 4243 8344
18817 4946 7410
18818 591  3091
18819 3059 1866
18820 8704 7304
18821 3828 4751
18822 9617 3309
18823 4461 9528
18824 85   1664
18825 3782 7472
18826 4208 4076
18827 1968 9803
18828 2162 1708
18829 2168 7492
18830 2065 3541
18831 5313 5406
18832 6637 138 
18833 8903 4020
18834 5357 4790
18835 1343 7718
18836 4869 1381
18837 8733 3816
18838 2472 3732
18839 8086 2222
18840 6422 1737
18841 127  5485
18842 1790 5936
18843 5578 5044
18844 7054 6382
18845 3874 8689
18846 7993 5354
18847 5186 3256
18848 5427 2406
18849 6102 4598
18850 464  8222
18851 4729 1836
18852 7011 7389
18853 6208 2557
18854 4041 3041
18855 6893 5435
18856 4970 9879
18857 2093 1270
18858 9586 1007
18859 3534 8836
18860 8933 9433
18861 9834 1333
18862 3851 4129
18863 2018 1125
18864 2138 5804
18865 811  9502
18866 5017 8710
18867 8312 7265
18868 8059 8104
18869 3609 885 
18870 7523 6948
18871 7833 6378
18872 2717 5788
18873 4562 1955
18874 1553 1226
18875 8494 6482
18876 8415 2297
18877 596  2354
18878 6511 6864
18879 1204 461 
18880 1460 9991
18881 9351 5541
18882 4732 5652
18883 3928 7734
18884 9126 304 
18885 9191 6389
18886 473  5151
18887 7610 7581
18888 3514 2563
18889 5660 5218
18890 4360 4828
18891 9656 2230
18892 8292 9780
18893 1102 2565
18894 1614 8475
18895 7972 2042
18896 8465 118 
18897 6759 3220
18898 53   7546
18899 4101 9242
18900 3556 226 
18901 8707 9461
18902 6861 8391
18903 6384 0   
18904 2812 6880
18905 271  7086
18906 813  3371
18907 9890 1510
18908 5802 4876
18909 8473 3335
18910 100  5484
18911 8719 4210
18912 6757 6486
18913 4108 9373
18914 4951 7175
18915 7740 9579
18916 6161 3946
18917 7352 3749
18918 7990 3056
18919 8066 5888
18920 793  5153
18921 5252 4099
18922 919  781 
18923 8153 1578
18924 9307 1943
18925 2778 1557
18926 7184 3813
18927 6910 6229
18928 4685 2200
18929 6759 6779
18930 6570 5613
18931 7632 3811
18932 5291 2360
18933 9862 8977
18934 4477 8616
18935 8225 2263
18936 6761 712 
18937 7953 192 
18938 9602 4953
18939 535  4216
18940 2340 6153
18941 4455 438 
18942 6939 3297
18943 69   6955
18944 6782 771 
18945 1199 1887
18946 9839 6785
18947 3394 6029
18948 6005 3147
18949 9268 3077
18950 7293 9390
18951 6526 3320
18952 8646 2725
18953 1638 3812
18954 7152 7818
18955 2768 2180
18956 590  6841
18957 2367 5173
18958 6701 6113
18959 9007 8771
18960 6328 7622
18961 1670 1141
18962 7927 4265
18963 6690 8352
18964 4724 48  
18965 3264 9953
18966 7415 3205
18967 4028 4157
18968 2844 2285
18969 5414 7079
18970 1222 4490
18971 4265 5853
18972 7933 611 
18973 3262 82  
18974 2157 6549
18975 9058 3482
18976 4521 5312
18977 6180 9350
18978 3173 4357
18979 4921 5243
18980 3869 6536
18981 8969 9000
18982 7624 5584
18983 8085 3373
18984 8087 5316
18985 3086 7196
18986 5714 1924
18987 2240 6758
18988 8819 5295
18989 7416 7224
18990 1688 8823
18991 257  6890
18992 8510 435 
18993 8151 603 
18994 1962 9718
18995 7143 7700
18996 7601 4659
18997 6918 5287
18998 4920 4686
18999 5894 8977
19000 7120 5246
19001 1104 2115
19002 6526 8503
19003 8170 8472
19004 1923 1020
19005 7386 8401
19006 7266 3470
19007 1051 169 
19008 3326 3047
19009 4422 7411
19010 1767 5806
19011 7156 4190
19012 9051 6477
19013 5436 7412
19014 1961 9766
19015 4511 1789
19016 2528 5902
19017 2961 7609
19018 4064 8264
19019 9151 9210
19020 4689 181 
19021 675  8850
19022 530  944 
19023 2780 4487
19024 6143 2271
19025 1706 4530
19026 9020 7502
19027 4314 1873
19028 8885 843 
19029 3755 2415
19030 164  1280
19031 3336 2550
19032 1790 5229
19033 9091 3990
19034 5733 39  
19035 3989 9757
19036 2805 6141
19037 841  9559
19038 1371 173 
19039 3086 4876
19040 9711 806 
19041 1844 2248
19042 1807 6579
19043 1700 9099
19044 5960 6080
19045 8094 9930
19046 5356 8681
19047 1599 3403
19048 4708 3379
19049 2969 5429
19050 6688 7483
19051 8487 3566
19052 1433 9312
19053 5896 176 
19054 163  5060
19055 4311 6777
19056 4429 7469
19057 2240 9752
19058 5157 1997
19059 4549 9075
19060 7047 3685
19061 4731 8805
19062 4960 6040
19063 8903 4697
19064 4737 488 
19065 7102 1706
19066 3851 1560
19067 9419 4743
19068 5400 9254
19069 8956 4092
19070 9422 7981
19071 6058 3672
19072 3482 2775
19073 2637 3023
19074 4798 2216
19075 3719 6559
19076 207  8944
19077 863  5962
19078 4986 535 
19079 4812 2667
19080 2002 203 
19081 9302 9950
19082 5985 6297
19083 5217 6391
19084 5550 9523
19085 6187 3167
19086 7278 1113
19087 3892 7938
19088 2565 8626
19089 3584 3627
19090 5398 3507
19091 3428 2677
19092 8440 9289
19093 5776 7402
19094 6649 895 
19095 3995 9061
19096 961  3687
19097 26   2099
19098 1611 3070
19099 8638 7531
19100 1997 3282
19101 2027 4243
19102 6633 2401
19103 6511 8697
19104 5084 3912
19105 4699 8239
19106 8184 752 
19107 9754 3625
19108 7332 5716
19109 7599 5150
19110 9705 6281
19111 9045 9668
19112 2977 883 
19113 4695 9607
19114 9636 7584
19115 1459 7871
19116 2495 1419
19117 5783 9008
19118 1970 5207
19119 2830 946 
19120 3790 4288
19121 9489 4972
19122 6536 4155
19123 4101 2718
19124 1054 7627
19125 4003 2695
19126 3817 5804
19127 3756 6402
19128 4158 5071
19129 1992 2476
19130 7900 8204
19131 1508 2749
19132 4523 1831
19133 8104 3628
19134 4322 247 
19135 9345 5949
19136 4802 5188
19137 6982 7022
19138 1676 6118
19139 3713 7794
19140 845  6898
19141 6880 5215
19142 2437 2171
19143 1384 1296
19144 8263 3394
19145 7517 2448
19146 6767 7190
19147 8043 644 
19148 5531 9973
19149 3924 4906
19150 3420 161 
19151 4262 9489
19152 2984 7429
19153 1916 3193
19154 2613 7759
19155 3706 3329
19156 2986 7049
19157 4561 51  
19158 1734 252 
19159 8591 3811
19160 1556 8587
19161 1001 8567
19162 667  3243
19163 399  615 
19164 5179 5153
19165 9002 5476
19166 2039 2484
19167 2948 5047
19168 2583 2464
19169 5170 616 
19170 1404 5721
19171 6379 2727
19172 8277 6484
19173 9029 5161
19174 3261 5404
19175 5094 7167
19176 2365 8481
19177 4833 1127
19178 3209 1619
19179 7618 4253
19180 5126 5138
19181 8947 4507
19182 5820 4835
19183 9246 3935
19184 769  2471
19185 7272 9348
19186 1432 5396
19187 1236 4378
19188 9592 7278
19189 1035 7482
19190 9703 2117
19191 5252 5497
19192 5331 9526
19193 9315 3653
19194 8956 849 
19195 6469 9964
19196 6693 4800
19197 3370 8823
19198 743  5684
19199 1723 4122
19200 8747 2443
19201 6904 9244
19202 1237 427 
19203 9764 7416
19204 4657 4880
19205 8267 395 
19206 6235 7373
19207 3734 9683
19208 1544 5936
19209 4989 1328
19210 4160 5174
19211 1351 3957
19212 5900 8417
19213 1041 5098
19214 9497 1379
19215 9423 741 
19216 9035 3024
19217 3731 8383
19218 6901 698 
19219 4079 216 
19220 250  8416
19221 5094 131 
19222 1567 4512
19223 8001 5972
19224 9005 2498
19225 1421 7321
19226 2597 835 
19227 7982 6987
19228 160  7342
19229 3710 585 
19230 4507 8271
19231 3826 7003
19232 8550 5152
19233 2800 9601
19234 8269 6673
19235 9725 6865
19236 7324 9739
19237 1497 8836
19238 6130 6104
19239 9641 553 
19240 7888 4794
19241 261  9578
19242 4751 9561
19243 8241 1706
19244 6870 3820
19245 6238 2954
19246 82   8926
19247 5203 9569
19248 7154 6122
19249 1524 7949
19250 3725 3386
19251 8588 3618
19252 6428 2372
19253 1324 1191
19254 1929 5136
19255 9738 4795
19256 718  4469
19257 69   438 
19258 4792 5558
19259 4080 1798
19260 6005 1526
19261 3690 6221
19262 6063 446 
19263 4510 4904
19264 9322 3471
19265 1506 5551
19266 3237 1436
19267 8614 5523
19268 8043 4260
19269 1123 2413
19270 8302 7142
19271 3762 700 
19272 5213 9028
19273 9855 885 
19274 5090 4517
19275 3437 8309
19276 8310 21  
19277 4383 2565
19278 6396 2435
19279 109  4358
19280 1195 4375
19281 8183 7235
19282 8098 268 
19283 4478 2484
19284 7329 6286
19285 7913 1392
19286 8306 1190
19287 2027 7096
19288 766  8946
19289 2690 1060
19290 4128 2492
19291 6848 5024
19292 6487 3519
19293 3748 1331
19294 7520 965 
19295 1819 9387
19296 6331 5451
19297 4857 5743
19298 8410 4326
19299 7814 3612
19300 9306 6397
19301 9668 6628
19302 5285 7027
19303 7053 798 
19304 9816 1993
19305 6351 2275
19306 8077 7259
19307 5134 3148
19308 8958 9938
19309 2346 4037
19310 6881 8982
19311 213  5210
19312 5321 1309
19313 64   8286
19314 9485 1535
19315 8578 4881
19316 5069 8480
19317 4370 2135
19318 2519 5259
19319 2278 8865
19320 6244 2097
19321 6918 4920
19322 3074 5135
19323 5651 9623
19324 8115 8402
19325 964  1062
19326 2819 8438
19327 5560 5180
19328 9148 2941
19329 8964 5431
19330 1907 8950
19331 505  468 
19332 7276 4322
19333 3568 1125
19334 9933 3053
19335 9324 961 
19336 3302 158 
19337 2341 2524
19338 9845 4886
19339 2515 7706
19340 1992 3337
19341 3259 3607
19342 8034 1682
19343 9671 5479
19344 1404 8968
19345 1365 3340
19346 2701 2975
19347 8824 4043
19348 4435 3755
19349 6615 8786
19350 7499 4811
19351 8081 9373
19352 8325 8948
19353 2489 4526
19354 5136 5236
19355 7493 577 
19356 2903 6494
19357 8959 3529
19358 4121 3890
19359 2005 4962
19360 2618 9116
19361 3370 172 
19362 5253 5935
19363 6164 9189
19364 4640 3166
19365 8508 8602
19366 421  6679
19367 6809 9366
19368 7771 6457
19369 6719 1519
19370 2638 2929
19371 9921 5475
19372 4581 7967
19373 7936 3424
19374 3710 6581
19375 5927 5626
19376 3876 2543
19377 4988 2807
19378 759  387 
19379 9869 5285
19380 6491 9860
19381 2361 3169
19382 1517 2761
19383 7547 802 
19384 6191 9423
19385 5859 5275
19386 8787 4050
19387 9775 887 
19388 5147 9804
19389 5946 8009
19390 260  3129
19391 1981 136 
19392 1566 9667
19393 4536 8127
19394 9642 2370
19395 4591 5275
19396 8853 2585
19397 1792 4338
19398 8663 4239
19399 8899 1936
19400 2219 7609
19401 5924 29  
19402 4085 1347
19403 79   1778
19404 4018 931 
19405 7671 5727
19406 1508 3717
19407 7314 9   
19408 3469 2494
19409 6288 8942
19410 3488 7392
19411 6720 3342
19412 9359 4192
19413 3786 697 
19414 6340 2843
19415 9769 4615
19416 8388 5034
19417 2346 2308
19418 5602 5578
19419 6167 8143
19420 8962 2092
19421 3652 4181
19422 1830 3150
19423 4122 9330
19424 7527 7212
19425 8299 4127
19426 9426 7847
19427 1996 8338
19428 3154 9043
19429 671  4340
19430 1517 7951
19431 4960 8656
19432 3806 1638
19433 6913 1859
19434 9038 9679
19435 4352 9027
19436 7244 2977
19437 6949 8944
19438 5507 8906
19439 3448 5424
19440 9176 3962
19441 1580 9106
19442 3661 532 
19443 4080 6348
19444 6956 7724
19445 1368 7653
19446 136  8564
19447 6226 796 
19448 152  1951
19449 8635 765 
19450 8637 8348
19451 11   8491
19452 4068 9011
19453 7325 2419
19454 4153 5235
19455 2787 3465
19456 9102 1954
19457 1813 407 
19458 9828 1681
19459 9981 6069
19460 4927 8715
19461 9426 524 
19462 2187 2319
19463 9375 6773
19464 7519 821 
19465 4582 6355
19466 5643 39  
19467 9311 7829
19468 2816 4380
19469 2019 4131
19470 6638 4742
19471 5719 7598
19472 871  3560
19473 3844 2526
19474 5909 3439
19475 8149 7521
19476 7367 9956
19477 9610 4772
19478 6459 4248
19479 4768 2066
19480 2551 2970
19481 8443 7587
19482 3052 1940
19483 5660 4   
19484 2823 8914
19485 6805 2723
19486 6860 9029
19487 7952 4823
19488 9889 8850
19489 7023 7143
19490 9082 273 
19491 3654 5336
19492 8172 4029
19493 3690 6621
19494 8989 2127
19495 9605 105 
19496 8755 7529
19497 3751 1254
19498 3279 3477
19499 3599 1862
19500 3209 6923
19501 1523 6440
19502 2571 5095
19503 9890 2815
19504 1072 9757
19505 5432 3947
19506 5268 8206
19507 3097 8209
19508 6593 1561
19509 5273 5625
19510 6043 7917
19511 9556 7644
19512 8446 4639
19513 2217 5745
19514 9988 4022
19515 6098 5367
19516 5701 6058
19517 174  1989
19518 3213 6616
19519 4177 3964
19520 1881 4518
19521 5529 2137
19522 5160 8594
19523 6731 2453
19524 2833 1936
19525 2873 4127
19526 4868 7528
19527 6529 6711
19528 4530 7470
19529 4876 9963
19530 3270 9068
19531 5991 640 
19532 9687 5233
19533 1051 4305
19534 7535 6409
19535 6179 1786
19536 6518 3735
19537 7323 4882
19538 2951 9767
19539 9252 4880
19540 9780 8069
19541 1985 8216
19542 1661 2041
19543 8422 1232
19544 8409 5459
19545 5263 5857
19546 4433 5119
19547 3696 5167
19548 7331 8893
19549 2433 3938
19550 406  3   
19551 9506 2175
19552 7013 5780
19553 2594 7001
19554 4092 4864
19555 7464 1935
19556 6630 4998
19557 5545 2919
19558 9406 6689
19559 9707 5329
19560 2974 1283
19561 7962 6563
19562 9372 8072
19563 7937 8275
19564 8952 4909
19565 6784 990 
19566 4187 7548
19567 5786 7160
19568 5430 4824
19569 8263 8364
19570 2454 9073
19571 2222 5813
19572 6860 5271
19573 940  1640
19574 2993 2178
19575 6653 1688
19576 4675 3622
19577 2427 1506
19578 447  2465
19579 7144 7385
19580 8024 4873
19581 1776 6463
19582 6011 2226
19583 9899 3593
19584 9569 6706
19585 6022 7601
19586 903  2717
19587 9769 4582
19588 3760 9993
19589 3779 4412
19590 3336 3431
19591 6595 1976
19592 3660 1268
19593 9133 7736
19594 5301 5633
19595 2188 1481
19596 2030 9357
19597 8635 8064
19598 4616 3491
19599 8082 8975
19600 9189 7032
19601 9227 1728
19602 7173 1593
19603 924  1998
19604 6710 7114
19605 9831 8866
19606 3933 7038
19607 2017 2266
19608 9144 7653
19609 7712 8292
19610 4651 505 
19611 7433 7394
19612 4488 5930
19613 6401 5839
19614 8718 3718
19615 2964 8519
19616 4576 6852
19617 6574 1731
19618 8490 1373
19619 6304 1614
19620 5260 7079
19621 5906 1221
19622 5071 6814
19623 5274 683 
19624 9495 4992
19625 6537 2689
19626 5326 9822
19627 429  5690
19628 8887 168 
19629 3243 6358
19630 6933 2083
19631 7626 2389
19632 605  2734
19633 7588 6037
19634 5608 1755
19635 3823 5712
19636 2461 3941
19637 628  7409
19638 9607 4712
19639 5612 6162
19640 8537 5122
19641 4464 7353
19642 6205 1146
19643 5761 7491
19644 940  1063
19645 7258 741 
19646 1286 7234
19647 7221 1439
19648 2108 7119
19649 1079 6892
19650 6340 9887
19651 4405 6637
19652 9103 5999
19653 2367 379 
19654 9056 5770
19655 9140 9970
19656 3538 20  
19657 4535 2897
19658 1290 6314
19659 1438 9428
19660 8442 7493
19661 7313 6659
19662 9014 6087
19663 4912 1824
19664 3549 1817
19665 1489 6674
19666 9618 9440
19667 2930 7779
19668 6651 2511
19669 7262 752 
19670 6321 8748
19671 8085 1899
19672 5533 5988
19673 2300 9151
19674 1785 8081
19675 6602 8946
19676 1742 7049
19677 7092 2170
19678 6545 6743
19679 268  9224
19680 240  8773
19681 6506 7096
19682 4018 678 
19683 559  4541
19684 9373 931 
19685 3258 2747
19686 9849 2808
19687 148  4970
19688 2014 8688
19689 8179 7907
19690 3729 9818
19691 3183 4179
19692 8729 1986
19693 9545 9403
19694 1662 6062
19695 3900 5596
19696 1952 2381
19697 6724 7248
19698 6938 7487
19699 5229 3633
19700 9767 667 
19701 8889 6630
19702 8359 7223
19703 7092 3413
19704 5971 6362
19705 9607 9510
19706 3315 1484
19707 8017 6361
19708 5940 390 
19709 2858 2851
19710 1930 2281
19711 5710 4831
19712 6317 9026
19713 1478 2781
19714 487  250 
19715 3759 6368
19716 2178 9144
19717 9980 5722
19718 3603 2625
19719 6358 5627
19720 6688 7307
19721 479  1112
19722 2281 8100
19723 614  7340
19724 2712 9450
19725 3380 9539
19726 4697 8788
19727 6670 3592
19728 5437 6453
19729 7521 6789
19730 2280 4860
19731 144  6450
19732 8291 9144
19733 665  9917
19734 6991 685 
19735 603  376 
19736 5975 331 
19737 382  7977
19738 4830 6141
19739 8217 2855
19740 8600 9742
19741 908  7108
19742 8432 5748
19743 3421 9209
19744 1670 9402
19745 1317 1405
19746 4572 5752
19747 6817 8031
19748 7338 747 
19749 5029 550 
19750 5816 4326
19751 6762 2285
19752 6840 1091
19753 1811 4643
19754 9465 847 
19755 1703 1294
19756 8806 3496
19757 3115 9339
19758 8842 1878
19759 7505 1745
19760 6189 5355
19761 1961 673 
19762 8014 1650
19763 5799 50  
19764 781  7611
19765 7847 9513
19766 1787 3936
19767 1268 7595
19768 1523 4054
19769 5976 2283
19770 1893 7229
19771 2751 8263
19772 5504 7085
19773 3461 2041
19774 7013 9903
19775 1433 1716
19776 441  8803
19777 1618 4532
19778 2174 1318
19779 8427 5347
19780 1402 8649
19781 4964 1528
19782 2346 8681
19783 2692 2227
19784 7311 7754
19785 3916 6495
19786 2652 1531
19787 1814 5275
19788 9524 9698
19789 7163 7978
19790 225  5621
19791 8939 1892
19792 5897 1424
19793 5620 2163
19794 97   5383
19795 4153 2450
19796 7074 1470
19797 5398 1469
19798 5882 8679
19799 4780 1660
19800 7441 4646
19801 8972 8634
19802 9237 1853
19803 4980 1867
19804 1086 8209
19805 777  18  
19806 9732 8395
19807 6205 8704
19808 2802 1328
19809 5650 8998
19810 1056 4933
19811 7030 1123
19812 7865 3658
19813 2465 8227
19814 3920 6428
19815 8883 6383
19816 4718 3927
19817 2562 4625
19818 6460 6212
19819 8046 3941
19820 6246 7092
19821 1559 5711
19822 3568 9977
19823 9890 5179
19824 8586 9417
19825 5534 2766
19826 1919 1338
19827 7623 4471
19828 2108 4339
19829 7572 7383
19830 5328 2608
19831 845  7074
19832 6127 6071
19833 6864 3428
19834 2471 859 
19835 1460 6957
19836 3476 1655
19837 5012 217 
19838 2169 4325
19839 7261 8180
19840 8456 5013
19841 2190 5400
19842 3333 5338
19843 6935 9292
19844 2804 7601
19845 2875 7357
19846 3777 5770
19847 997  7926
19848 1460 1489
19849 6302 1102
19850 3141 705 
19851 6088 2480
19852 6672 4914
19853 2411 7155
19854 8346 8207
19855 8588 525 
19856 3146 3984
19857 6897 5898
19858 6778 6144
19859 2026 2668
19860 43   2787
19861 6095 7883
19862 635  849 
19863 9755 3236
19864 5123 6451
19865 4469 658 
19866 5386 6268
19867 6287 3761
19868 7868 2610
19869 7515 2842
19870 8667 6062
19871 9841 8490
19872 318  2498
19873 956  7783
19874 6607 3845
19875 7752 3546
19876 945  3281
19877 9971 7315
19878 8144 3236
19879 9623 2806
19880 4559 3486
19881 2545 4158
19882 2541 8125
19883 8815 3632
19884 2979 239 
19885 7959 1777
19886 3767 8386
19887 2662 2430
19888 5771 3451
19889 4110 5749
19890 549  8673
19891 473  8264
19892 8087 3705
19893 8347 9121
19894 6805 2814
19895 5413 1871
19896 4500 8911
19897 4836 8715
19898 8583 5417
19899 5556 1069
19900 9517 1464
19901 4836 1787
19902 5657 2523
19903 3860 2195
19904 1138 3723
19905 1357 6123
19906 7675 416 
19907 4014 1436
19908 5623 6908
19909 659  688 
19910 7979 5595
19911 4330 5632
19912 1859 9017
19913 4042 8555
19914 9341 8862
19915 8329 1064
19916 6275 9866
19917 6024 4862
19918 2797 7933
19919 1399 7853
19920 2057 7737
19921 4893 8102
19922 883  3933
19923 7153 843 
19924 3070 8310
19925 8992 4038
19926 7626 7854
19927 6659 209 
19928 326  3503
19929 8059 8067
19930 3497 6137
19931 8205 8557
19932 7578 3457
19933 7906 9864
19934 5582 4313
19935 7516 9308
19936 2727 6765
19937 3243 4214
19938 182  4553
19939 655  9582
19940 4384 9308
19941 3348 6199
19942 9286 7442
19943 4133 5560
19944 4336 5692
19945 8058 3106
19946 4823 3509
19947 402  8171
19948 6477 3925
19949 558  2890
19950 1470 9859
19951 8703 5715
19952 4391 9843
19953 9017 8987
19954 9731 3791
19955 9839 3766
19956 9277 7645
19957 538  509 
19958 4476 1481
19959 3914 7823
19960 5356 9129
19961 7306 7522
19962 4592 6909
19963 2390 9479
19964 9328 1453
19965 2611 2344
19966 4225 8827
19967 4487 2108
19968 5737 550 
19969 5597 4050
19970 185  996 
19971 1556 8765
19972 624  6547
19973 8314 3611
19974 6320 7299
19975 2174 5449
19976 9984 7111
19977 6265 2529
19978 5168 468 
19979 1040 3800
19980 2553 6928
19981 4340 1428
19982 6610 411 
19983 1195 317 
19984 3979 800 
19985 2461 4438
19986 6764 6819
19987 9958 4006
19988 8902 1460
19989 8657 4630
19990 6246 6477
19991 5768 1008
19992 6530 8273
19993 593  7442
19994 2386 7328
19995 2994 3215
19996 7307 7702
19997 5244 9275
19998 9054 8133
19999 3488 1473
20000 8421 912 
20001 8776 9014
20002 5270 3052
20003 3520 850 
20004 9969 4674
20005 7290 7112
20006 4256 8587
20007 544  9801
20008 7637 1106
20009 3417 6232
20010 8835 530 
20011 9552 8923
20012 5083 9288
20013 3066 6937
20014 898  9852
20015 5644 5198
20016 3375 3363
20017 8119 4392
20018 4665 8454
20019 3908 6425
20020 2727 8511
20021 6470 6825
20022 3132 3499
20023 7942 1729
20024 8646 2942
20025 5191 2387
20026 6438 983 
20027 7112 8134
20028 1778 4192
20029 3081 2997
20030 5276 1366
20031 6504 9395
20032 536  8355
20033 6769 182 
20034 1458 757 
20035 1499 9408
20036 4811 4689
20037 3432 2550
20038 3450 5558
20039 7732 9899
20040 3550 8395
20041 720  6261
20042 939  2197
20043 9739 3087
20044 8384 7362
20045 9550 659 
20046 7662 8537
20047 3114 7321
20048 3460 5549
20049 609  5704
20050 3184 1589
20051 1954 1571
20052 5634 7512
20053 2141 5894
20054 1166 5670
20055 6474 1909
20056 2406 2001
20057 1393 369 
20058 5831 546 
20059 2427 879 
20060 5447 5414
20061 7434 1452
20062 1355 7649
20063 6159 519 
20064 9684 1093
20065 6026 447 
20066 9347 9954
20067 4968 7565
20068 7872 2575
20069 7000 1186
20070 9927 809 
20071 5443 4344
20072 3935 1640
20073 5220 582 
20074 1770 4849
20075 9943 3959
20076 9018 553 
20077 8108 8792
20078 6158 4398
20079 5979 5544
20080 6058 5917
20081 5631 5877
20082 6760 7449
20083 3320 4658
20084 9827 2455
20085 2105 7904
20086 5850 6443
20087 4596 2214
20088 3894 9404
20089 3579 2465
20090 2336 7203
20091 2230 4223
20092 9131 8563
20093 4410 7040
20094 3348 5695
20095 385  177 
20096 1436 8469
20097 6331 3522
20098 2328 4828
20099 4502 1178
20100 3131 9669
20101 8774 239 
20102 6878 7421
20103 310  7214
20104 918  3197
20105 8011 2471
20106 3902 225 
20107 9585 1256
20108 45   2391
20109 6943 295 
20110 6516 1782
20111 9323 3627
20112 6360 9063
20113 3098 5513
20114 7473 8355
20115 5859 5884
20116 1478 4464
20117 5333 5176
20118 1714 1002
20119 4982 3833
20120 725  8442
20121 5557 329 
20122 9457 5660
20123 3620 6898
20124 9975 6871
20125 2483 4406
20126 3636 3941
20127 7290 2392
20128 5094 3548
20129 9525 7196
20130 7614 6484
20131 1406 5961
20132 1530 5232
20133 2111 2410
20134 8617 2778
20135 2690 5788
20136 492  4635
20137 2044 6301
20138 161  1787
20139 2253 8678
20140 8154 5521
20141 3034 2354
20142 7434 6801
20143 6041 7129
20144 3929 6496
20145 1431 6009
20146 3521 6082
20147 1185 1122
20148 3894 5517
20149 8133 9071
20150 385  2795
20151 3154 6868
20152 3767 8191
20153 8586 3946
20154 6038 3120
20155 6599 9982
20156 4285 9967
20157 1984 7511
20158 5451 1579
20159 823  1440
20160 5    2421
20161 9961 561 
20162 6565 957 
20163 2523 9150
20164 7553 3617
20165 1896 2628
20166 1408 3488
20167 3026 5244
20168 480  8277
20169 2244 2417
20170 6699 9755
20171 2369 8423
20172 5378 7320
20173 7418 9773
20174 9946 7245
20175 5178 2766
20176 6831 7863
20177 3116 5324
20178 4270 5272
20179 9677 5211
20180 4495 8080
20181 3171 5924
20182 4022 5314
20183 1968 6687
20184 8517 5144
20185 8223 2870
20186 9332 6086
20187 7364 4363
20188 4324 3100
20189 1430 5846
20190 474  2821
20191 9130 9198
20192 3235 614 
20193 5783 7724
20194 4881 5969
20195 1997 6978
20196 5613 8493
20197 8185 9284
20198 6279 5761
20199 3751 8454
20200 5772 1671
20201 6707 3035
20202 3302 7029
20203 8805 4313
20204 6643 7712
20205 8603 8320
20206 7264 1391
20207 7344 8630
20208 2207 9005
20209 8143 4584
20210 7041 4329
20211 5983 2723
20212 8477 7279
20213 4813 845 
20214 6376 2466
20215 5772 8219
20216 7053 794 
20217 2925 4880
20218 339  4453
20219 9475 6165
20220 5187 5340
20221 3886 4655
20222 3196 7340
20223 3356 2513
20224 9602 1739
20225 7439 7947
20226 9021 2593
20227 4786 3433
20228 888  1132
20229 1051 1723
20230 245  5045
20231 2478 6078
20232 8138 3436
20233 6501 3693
20234 4890 2242
20235 7214 9883
20236 7699 3096
20237 7597 2876
20238 8369 8472
20239 9909 600 
20240 2773 6233
20241 4741 9104
20242 7587 1995
20243 7436 7141
20244 1252 2234
20245 6829 9319
20246 2142 2736
20247 4668 5926
20248 3113 4524
20249 894  5275
20250 2857 7200
20251 5574 9159
20252 5869 6993
20253 1526 5961
20254 427  1223
20255 4917 6730
20256 9942 8803
20257 6926 3761
20258 1639 6317
20259 1130 3795
20260 1635 4425
20261 5315 7800
20262 2205 3025
20263 3943 5656
20264 679  6265
20265 8207 769 
20266 1613 7699
20267 8627 5534
20268 907  7842
20269 7284 1153
20270 1871 4800
20271 5465 6106
20272 8671 6486
20273 551  6544
20274 7631 3721
20275 1450 8224
20276 9212 5587
20277 2278 7273
20278 8733 1159
20279 4850 8835
20280 3801 5147
20281 8281 9314
20282 4155 9634
20283 1593 3222
20284 6504 8314
20285 2416 8333
20286 752  6956
20287 3971 4789
20288 8920 4920
20289 9767 9238
20290 7386 1529
20291 7370 7106
20292 5027 4335
20293 2583 8062
20294 7224 7400
20295 6622 3115
20296 8729 1524
20297 2695 3997
20298 8968 7279
20299 8652 7656
20300 4415 4299
20301 753  7657
20302 7529 5064
20303 652  5548
20304 449  6703
20305 7616 2675
20306 132  2958
20307 9937 7074
20308 2346 8504
20309 7345 7715
20310 8307 9868
20311 6758 3535
20312 2648 3838
20313 1744 8107
20314 5221 754 
20315 4246 2896
20316 9354 5304
20317 3138 7821
20318 1243 6129
20319 4598 4043
20320 519  365 
20321 6049 5313
20322 4918 1632
20323 5556 3291
20324 9335 2099
20325 3441 422 
20326 8128 593 
20327 4035 2184
20328 6989 8764
20329 2151 1393
20330 5567 414 
20331 2548 8268
20332 2047 7613
20333 6300 4350
20334 2410 6833
20335 3516 8419
20336 3368 357 
20337 9836 8519
20338 6880 7068
20339 1766 7559
20340 9479 4783
20341 5270 6256
20342 1578 3809
20343 1828 4254
20344 7089 6308
20345 4858 9458
20346 9858 9308
20347 1635 9386
20348 2478 7989
20349 5238 9980
20350 5677 4289
20351 1215 2726
20352 9777 5899
20353 9172 1556
20354 2046 2043
20355 7117 1985
20356 3350 9591
20357 7350 8141
20358 6688 6959
20359 8733 7285
20360 9845 4264
20361 9137 6228
20362 3493 1518
20363 4840 8017
20364 7196 4711
20365 9744 1286
20366 9576 2793
20367 9059 233 
20368 7118 1827
20369 4537 360 
20370 6890 9949
20371 5946 6137
20372 9072 6758
20373 8402 3222
20374 3412 9241
20375 9806 7717
20376 5762 8553
20377 7598 1745
20378 6247 6383
20379 585  1679
20380 7058 8305
20381 1443 7977
20382 49   9901
20383 9259 4111
20384 1884 8889
20385 8858 5036
20386 1163 5319
20387 595  1245
20388 2874 9407
20389 8176 6201
20390 9725 49  
20391 708  4207
20392 3159 3350
20393 6077 6901
20394 8599 2016
20395 5037 6301
20396 7377 6742
20397 909  9310
20398 5813 7948
20399 7721 8088
20400 657  7556
20401 9453 8139
20402 3389 1438
20403 680  1438
20404 2    3766
20405 5058 3747
20406 2721 6091
20407 7420 1683
20408 4942 7633
20409 7629 7258
20410 3379 2786
20411 7295 1035
20412 5368 2760
20413 2745 7506
20414 7227 3027
20415 5074 3770
20416 6476 485 
20417 7121 2188
20418 190  6264
20419 5314 1160
20420 9382 8764
20421 1295 2558
20422 6089 22  
20423 9797 3928
20424 4507 3184
20425 8527 6827
20426 1883 9704
20427 2542 7017
20428 4855 8696
20429 8210 522 
20430 6875 2395
20431 5308 9337
20432 8225 9973
20433 747  698 
20434 5290 5050
20435 5907 1613
20436 2873 4131
20437 1250 5510
20438 6941 8722
20439 7742 2987
20440 2362 7082
20441 2163 545 
20442 4184 2069
20443 8646 8826
20444 8659 5889
20445 8916 5776
20446 9027 5093
20447 2647 1203
20448 2995 9203
20449 1705 3471
20450 8292 1957
20451 8442 9667
20452 9989 8909
20453 8410 8521
20454 3688 6313
20455 5290 7067
20456 2226 2068
20457 2844 752 
20458 3112 5596
20459 8654 6030
20460 6074 8899
20461 5269 7715
20462 7942 5667
20463 7696 9851
20464 4354 67  
20465 1712 7129
20466 7659 760 
20467 9549 489 
20468 6980 5021
20469 3626 9412
20470 300  1435
20471 3513 3922
20472 8802 6389
20473 9086 4362
20474 7067 7072
20475 4947 9535
20476 1652 7770
20477 1562 5454
20478 9732 3812
20479 50   8475
20480 9135 9173
20481 5615 8037
20482 4303 8301
20483 726  5078
20484 177  5547
20485 8470 9007
20486 9564 8058
20487 7615 7233
20488 9528 3507
20489 6    5992
20490 6764 3905
20491 7842 1340
20492 3478 2733
20493 1907 5113
20494 8794 4395
20495 4689 5516
20496 3293 5682
20497 7115 3339
20498 6190 2733
20499 5929 5034
20500 1440 4703
20501 2077 3512
20502 1923 3119
20503 8311 3274
20504 5625 7199
20505 6001 8427
20506 3503 245 
20507 1422 9356
20508 29   354 
20509 9944 6064
20510 8394 1324
20511 9628 4035
20512 913  6072
20513 7615 514 
20514 1184 3836
20515 3399 6616
20516 5786 6012
20517 8544 4423
20518 9145 7930
20519 5623 9027
20520 9874 5030
20521 2282 7514
20522 718  6114
20523 9218 3249
20524 7454 2650
20525 552  9292
20526 6155 4956
20527 7628 4388
20528 9955 9340
20529 4981 9866
20530 2579 6080
20531 4482 4859
20532 1953 6467
20533 7991 2655
20534 8072 2475
20535 2378 5906
20536 8586 6857
20537 2625 1652
20538 7834 4672
20539 5082 4233
20540 6717 6637
20541 162  5273
20542 1843 7882
20543 9578 4811
20544 7326 4864
20545 4374 6957
20546 5054 5251
20547 9869 1391
20548 8290 9669
20549 6597 6974
20550 1197 1870
20551 4683 2377
20552 5991 7896
20553 4485 4751
20554 5658 3270
20555 1760 4866
20556 866  8784
20557 124  3883
20558 7190 4443
20559 9083 5587
20560 2730 7916
20561 4695 163 
20562 7986 2654
20563 5306 2971
20564 5368 1232
20565 1193 2998
20566 5191 4472
20567 890  3049
20568 8243 8498
20569 4330 3882
20570 1316 3319
20571 2467 8154
20572 5574 1018
20573 2373 1988
20574 2586 9922
20575 6434 9910
20576 3700 646 
20577 6125 5438
20578 6894 7988
20579 2970 7181
20580 3752 5211
20581 1928 303 
20582 6336 4373
20583 4240 31  
20584 4829 3883
20585 9750 6564
20586 7607 8693
20587 2406 7611
20588 2616 6561
20589 9970 2261
20590 3352 7388
20591 1645 250 
20592 2370 9354
20593 2003 6380
20594 2743 9935
20595 777  5054
20596 2467 691 
20597 7453 5923
20598 5519 6792
20599 5486 3497
20600 5672 3621
20601 103  5271
20602 3711 2081
20603 8386 2559
20604 9368 2351
20605 3466 5173
20606 7654 1090
20607 5217 7494
20608 2208 8517
20609 5169 442 
20610 8172 9706
20611 2473 364 
20612 8622 5226
20613 1994 103 
20614 4661 671 
20615 7377 5617
20616 3199 4321
20617 929  5466
20618 5795 2005
20619 6492 876 
20620 4049 4459
20621 8593 1265
20622 6095 536 
20623 8697 3185
20624 5094 803 
20625 185  8368
20626 8912 2815
20627 508  1315
20628 5849 9197
20629 3216 5739
20630 7    6651
20631 4583 173 
20632 995  7829
20633 5159 2909
20634 310  8938
20635 7396 8042
20636 9789 1181
20637 2068 8482
20638 5642 564 
20639 2717 6669
20640 4690 1023
20641 2912 9289
20642 2864 5555
20643 8854 3161
20644 3790 7903
20645 5038 8152
20646 2534 5027
20647 4473 9453
20648 3642 2085
20649 9698 1760
20650 7140 7139
20651 76   6869
20652 5447 3649
20653 5913 8248
20654 1618 3025
20655 1529 5210
20656 8078 5557
20657 7741 2757
20658 2899 6319
20659 5273 9915
20660 8998 4807
20661 8067 4515
20662 5397 3417
20663 2728 2123
20664 268  1394
20665 5920 8057
20666 8068 2225
20667 970  9731
20668 7959 66  
20669 8850 5434
20670 9130 498 
20671 8690 4852
20672 6397 2909
20673 3002 3037
20674 17   2219
20675 6498 5568
20676 7696 5141
20677 166  2663
20678 4528 3780
20679 2070 4847
20680 4445 2421
20681 163  7891
20682 5908 3716
20683 2162 3508
20684 6159 7736
20685 1570 4755
20686 6053 9159
20687 8060 9487
20688 3244 2910
20689 5681 3223
20690 1420 1613
20691 4803 6922
20692 2567 1796
20693 6246 6777
20694 5590 3656
20695 4793 8367
20696 9939 1180
20697 8745 8125
20698 2559 7479
20699 103  5565
20700 1722 5338
20701 6654 4035
20702 8306 3352
20703 2733 2683
20704 3456 5698
20705 5658 2572
20706 956  7076
20707 5111 8343
20708 1828 7673
20709 8793 3976
20710 422  6031
20711 3329 6576
20712 8098 9708
20713 9531 9954
20714 1365 9959
20715 3175 3528
20716 3805 9466
20717 9407 8245
20718 2416 4588
20719 8133 7219
20720 2302 5308
20721 9543 6174
20722 8754 8774
20723 423  574 
20724 3078 2941
20725 609  9327
20726 7172 1261
20727 2146 1066
20728 3197 3831
20729 4342 5183
20730 5860 2078
20731 803  4650
20732 4197 2817
20733 7097 1923
20734 1400 7124
20735 1646 4542
20736 4403 3399
20737 1525 1804
20738 2538 9931
20739 1794 8690
20740 4489 9500
20741 8702 8406
20742 71   9401
20743 2098 4689
20744 4111 2396
20745 3937 9020
20746 3910 4844
20747 2175 3678
20748 2259 4203
20749 8174 29  
20750 2629 8688
20751 3968 6862
20752 1634 3678
20753 582  405 
20754 8405 7039
20755 9661 5573
20756 4703 3309
20757 3224 6593
20758 5646 3440
20759 6408 1761
20760 1132 6501
20761 736  4837
20762 9257 9349
20763 7174 4940
20764 5458 6004
20765 1357 85  
20766 6243 6043
20767 220  946 
20768 5896 1366
20769 7392 6215
20770 8979 1817
20771 5319 3786
20772 8901 1404
20773 8159 9693
20774 4602 8951
20775 5819 8440
20776 2606 3033
20777 2643 9933
20778 5969 9134
20779 9053 5019
20780 7281 8608
20781 466  4635
20782 8992 8065
20783 9977 3888
20784 1766 3058
20785 8559 6488
20786 8549 6756
20787 9525 2338
20788 6262 4615
20789 7291 3484
20790 9155 4281
20791 9040 9982
20792 7879 856 
20793 5955 3284
20794 7865 2042
20795 6673 8088
20796 8260 7606
20797 6748 2860
20798 3555 7136
20799 1388 2096
20800 7349 6471
20801 2992 1585
20802 7710 5539
20803 306  6417
20804 2593 2639
20805 8778 9472
20806 9693 794 
20807 158  6829
20808 9571 7211
20809 2024 6121
20810 5807 6980
20811 1269 6959
20812 7940 8713
20813 5685 5153
20814 3891 1792
20815 7746 3704
20816 3909 3127
20817 1879 359 
20818 5987 9849
20819 2129 683 
20820 8008 690 
20821 4214 7147
20822 587  754 
20823 9438 6982
20824 9016 5267
20825 4603 1012
20826 2910 2996
20827 7268 4401
20828 3818 9138
20829 9686 5732
20830 2450 5734
20831 2916 3161
20832 7942 3128
20833 6436 6495
20834 8472 1767
20835 4992 9620
20836 6832 9499
20837 7242 6295
20838 7440 537 
20839 2750 2957
20840 897  3925
20841 9208 8115
20842 7236 2415
20843 3393 1167
20844 4821 1571
20845 9635 4255
20846 3548 7246
20847 6609 1649
20848 680  25  
20849 2765 6465
20850 7327 8189
20851 9191 9868
20852 7974 2431
20853 9885 6106
20854 5129 9849
20855 404  8027
20856 2457 4330
20857 3819 7536
20858 5742 8170
20859 8919 3296
20860 959  3575
20861 6105 7507
20862 574  3549
20863 8039 6233
20864 4046 6668
20865 135  2283
20866 9089 8436
20867 6934 2100
20868 4511 8178
20869 4557 8304
20870 3272 1149
20871 2655 5655
20872 3609 6465
20873 8568 7970
20874 7046 9612
20875 2375 3432
20876 8302 6390
20877 562  4323
20878 327  3277
20879 8151 5647
20880 6071 1370
20881 4479 3720
20882 4295 7385
20883 1200 6870
20884 5544 7475
20885 1383 2583
20886 293  5605
20887 4739 259 
20888 3292 1776
20889 4599 5277
20890 6213 1678
20891 6697 1329
20892 2623 9308
20893 6877 3356
20894 2567 2671
20895 1705 5044
20896 5687 3601
20897 120  6518
20898 7885 3188
20899 6998 311 
20900 9370 9850
20901 2606 9694
20902 4292 9039
20903 508  5564
20904 254  3208
20905 8717 9627
20906 8119 3476
20907 1831 7115
20908 5876 3951
20909 6728 5197
20910 2603 2046
20911 8476 2103
20912 2231 7933
20913 5208 7055
20914 344  9995
20915 124  1158
20916 8946 576 
20917 1262 4234
20918 3604 7384
20919 986  7368
20920 3691 1918
20921 1604 8186
20922 9878 1384
20923 7215 3559
20924 1306 9258
20925 8947 544 
20926 2550 2433
20927 5642 482 
20928 2832 4068
20929 3525 3724
20930 8891 441 
20931 2534 5866
20932 7690 594 
20933 2724 409 
20934 5011 4737
20935 6637 3733
20936 8729 8828
20937 9851 2452
20938 2383 4661
20939 7497 5041
20940 5026 5636
20941 2206 521 
20942 437  7267
20943 676  2432
20944 9421 9154
20945 9318 5447
20946 6136 4518
20947 6708 2524
20948 1276 1889
20949 1602 6265
20950 4462 5812
20951 8829 4826
20952 6343 3767
20953 7413 9240
20954 8468 1008
20955 1284 4681
20956 3263 5810
20957 3140 9136
20958 2565 6105
20959 9692 3322
20960 8765 6032
20961 6160 9777
20962 4025 708 
20963 5552 8700
20964 4394 8117
20965 8945 3760
20966 4629 935 
20967 6348 9161
20968 2481 3720
20969 2079 4295
20970 2176 5102
20971 483  1343
20972 1394 8732
20973 7381 4743
20974 2734 8567
20975 8133 2513
20976 6310 7043
20977 6373 4185
20978 6925 9012
20979 1623 3236
20980 8819 3199
20981 8810 8231
20982 5846 1168
20983 8977 5817
20984 4951 1708
20985 7317 4871
20986 3381 3471
20987 7624 5740
20988 7949 9403
20989 230  4571
20990 7963 770 
20991 6887 5271
20992 7565 5050
20993 6454 7236
20994 9580 3646
20995 720  7759
20996 8400 2130
20997 8426 5887
20998 8968 6487
20999 5109 2272
21000 8045 3960
21001 7159 8630
21002 4033 251 
21003 4622 6567
21004 5572 8100
21005 7870 4772
21006 5260 9532
21007 5688 1608
21008 2874 5243
21009 3723 9430
21010 1722 2216
21011 4708 9530
21012 8140 1886
21013 6136 6294
21014 7656 559 
21015 8431 4890
21016 5480 1005
21017 6784 1812
21018 8204 6067
21019 8482 568 
21020 6618 3853
21021 2917 3906
21022 8399 9434
21023 4256 4719
21024 5636 2308
21025 2234 438 
21026 3313 8537
21027 8017 7917
21028 3773 3066
21029 7522 1097
21030 2037 4006
21031 2721 7595
21032 327  7214
21033 7917 7309
21034 5799 6200
21035 3419 9645
21036 8482 7811
21037 5148 4199
21038 5659 9308
21039 6771 1022
21040 6902 3640
21041 4419 5814
21042 8566 2157
21043 3301 6806
21044 4999 9276
21045 7712 4008
21046 4036 8254
21047 8833 6945
21048 5440 4316
21049 6655 8616
21050 942  2290
21051 1108 713 
21052 2959 1481
21053 7934 1220
21054 4786 7796
21055 6388 5527
21056 7273 2800
21057 3365 4975
21058 2514 5117
21059 3635 1709
21060 5027 1063
21061 2148 3218
21062 4041 611 
21063 109  4625
21064 7726 8097
21065 8040 6632
21066 5248 7338
21067 3546 4810
21068 6728 1701
21069 6787 6438
21070 536  9428
21071 471  868 
21072 7797 57  
21073 5433 9419
21074 1066 1875
21075 4668 6063
21076 2007 3246
21077 703  8259
21078 7721 4598
21079 5913 7705
21080 6231 4867
21081 3732 5094
21082 6460 5952
21083 9526 6374
21084 1538 5912
21085 6159 7767
21086 647  3853
21087 505  8153
21088 8557 2118
21089 2731 3287
21090 193  4212
21091 3377 402 
21092 973  1271
21093 6902 9453
21094 2806 4123
21095 9348 1903
21096 9843 689 
21097 4950 9683
21098 559  2511
21099 7433 3770
21100 3071 6941
21101 6954 134 
21102 6186 8659
21103 3738 6867
21104 2082 1233
21105 7366 8231
21106 4398 6864
21107 1433 6884
21108 1068 9024
21109 8884 6933
21110 7283 1168
21111 4039 952 
21112 8714 1836
21113 1649 9621
21114 3750 8148
21115 5895 2719
21116 3127 2810
21117 5762 6680
21118 7144 966 
21119 1840 333 
21120 6839 9028
21121 6282 3748
21122 5992 9410
21123 9535 4228
21124 425  4995
21125 1800 5845
21126 5021 7381
21127 2323 5709
21128 2818 5253
21129 3154 3956
21130 8848 2866
21131 6303 6589
21132 9618 2737
21133 9873 1233
21134 1361 5896
21135 7349 2511
21136 7422 483 
21137 2300 5027
21138 6528 2759
21139 7013 9719
21140 1009 7118
21141 175  9610
21142 8088 6255
21143 5103 6569
21144 7552 64  
21145 3162 666 
21146 8020 9976
21147 8966 6464
21148 4314 4721
21149 8803 2822
21150 830  3909
21151 3096 5356
21152 3838 5179
21153 337  3292
21154 221  5303
21155 4594 2131
21156 9206 5248
21157 5123 8921
21158 8017 5052
21159 7499 8512
21160 8220 9504
21161 4368 2477
21162 6399 2182
21163 827  436 
21164 479  9234
21165 1129 1748
21166 3788 7212
21167 4357 2040
21168 3350 1188
21169 7108 9667
21170 8826 5489
21171 8765 366 
21172 3655 4468
21173 8901 126 
21174 8145 9217
21175 1913 5914
21176 612  6083
21177 8001 9715
21178 4657 6074
21179 7549 1604
21180 9531 86  
21181 724  5008
21182 7996 133 
21183 5749 1039
21184 5786 9806
21185 5850 898 
21186 2727 964 
21187 888  8107
21188 6350 5840
21189 3053 8046
21190 6623 9338
21191 7614 1110
21192 5552 9728
21193 2498 8231
21194 5467 7809
21195 6906 3246
21196 5101 6487
21197 8776 7978
21198 1482 2107
21199 3711 5240
21200 799  663 
21201 7064 2412
21202 3312 4301
21203 5226 5371
21204 7467 8462
21205 3170 6050
21206 6406 677 
21207 8633 5819
21208 7480 301 
21209 1900 5227
21210 7210 378 
21211 8020 2771
21212 3060 1448
21213 7850 3171
21214 8277 1592
21215 6094 5745
21216 7459 9730
21217 9518 6079
21218 4927 5135
21219 6855 5669
21220 6307 1263
21221 8046 2693
21222 9930 3142
21223 3957 6749
21224 553  8412
21225 541  8995
21226 5338 4455
21227 4933 9232
21228 1763 1054
21229 6894 1114
21230 4551 7370
21231 3131 2044
21232 2030 9117
21233 1554 6186
21234 5392 5852
21235 1333 361 
21236 6864 4399
21237 5391 9897
21238 7823 4878
21239 2638 5943
21240 9718 1732
21241 5409 5948
21242 486  3446
21243 1821 6362
21244 3525 7344
21245 8223 9370
21246 6390 7785
21247 4471 3648
21248 9132 1745
21249 9410 1327
21250 1720 9237
21251 7811 1550
21252 5177 5162
21253 9491 2139
21254 7844 6294
21255 9833 2694
21256 3969 734 
21257 7792 5090
21258 6760 3986
21259 2920 6129
21260 3235 2990
21261 4201 9325
21262 7502 9969
21263 9974 4119
21264 4311 5596
21265 4669 457 
21266 6899 5402
21267 72   2139
21268 7773 1584
21269 955  2304
21270 1601 3674
21271 5057 4365
21272 4424 907 
21273 1515 9503
21274 6981 2881
21275 3531 6905
21276 9519 8015
21277 5852 9706
21278 5440 1361
21279 2852 954 
21280 2774 3371
21281 3918 4393
21282 3854 3901
21283 2392 3729
21284 486  6303
21285 7801 9178
21286 1372 2491
21287 154  9386
21288 7102 3620
21289 7333 7036
21290 3021 8480
21291 7525 4515
21292 9462 3961
21293 4774 8331
21294 9013 2401
21295 6092 1418
21296 587  2355
21297 4499 8350
21298 8823 2559
21299 5557 8769
21300 215  1347
21301 7384 3950
21302 3618 3716
21303 8136 2404
21304 4759 2297
21305 5015 2131
21306 9984 6572
21307 9679 1808
21308 9279 2726
21309 1566 2906
21310 6827 8299
21311 8281 1843
21312 2761 5687
21313 8309 2729
21314 9880 7459
21315 259  476 
21316 5024 3631
21317 1312 115 
21318 503  2952
21319 2101 1540
21320 934  6850
21321 8182 3495
21322 7075 9491
21323 4151 5408
21324 1473 160 
21325 3942 3632
21326 6705 563 
21327 6230 1014
21328 8340 4540
21329 4303 8420
21330 3410 8008
21331 5626 6284
21332 3482 5396
21333 4862 7669
21334 9681 6973
21335 8380 2824
21336 6694 1623
21337 4894 5424
21338 5821 7779
21339 7638 2406
21340 2885 2615
21341 77   4895
21342 7323 7631
21343 8902 8853
21344 6911 6577
21345 6560 682 
21346 9138 7071
21347 3082 4640
21348 1205 1714
21349 3822 7485
21350 6365 5830
21351 5450 5406
21352 8096 5145
21353 6868 423 
21354 9127 971 
21355 37   3159
21356 9438 2607
21357 2213 9413
21358 1213 7273
21359 7422 5501
21360 8310 7913
21361 2703 1735
21362 193  9127
21363 7439 1956
21364 5260 6901
21365 974  7109
21366 209  8999
21367 8761 601 
21368 3132 7374
21369 324  9963
21370 1428 2013
21371 8431 7499
21372 5112 7864
21373 6676 3717
21374 1318 6065
21375 4591 2682
21376 8299 3661
21377 6724 8764
21378 4899 1611
21379 5624 5839
21380 6355 1155
21381 6175 8084
21382 2869 6996
21383 1770 5555
21384 5776 7554
21385 7558 9913
21386 7679 2349
21387 287  2115
21388 9546 9698
21389 1384 3880
21390 8970 6113
21391 8128 1315
21392 6595 7404
21393 6865 5533
21394 2937 1143
21395 4580 7058
21396 726  2673
21397 7611 5618
21398 1006 9202
21399 1576 7284
21400 3398 9940
21401 5896 7667
21402 9353 7256
21403 8769 9240
21404 5861 5871
21405 7565 363 
21406 8591 6609
21407 2131 2492
21408 7832 9415
21409 7308 3903
21410 3894 3516
21411 9656 7888
21412 532  1793
21413 9979 8371
21414 4983 5077
21415 8515 8742
21416 4581 3165
21417 5104 874 
21418 7886 6617
21419 9202 6276
21420 4062 3560
21421 700  9288
21422 753  6961
21423 3093 5262
21424 3184 7140
21425 5924 6832
21426 1695 4066
21427 8229 8987
21428 5416 411 
21429 6613 2962
21430 6082 4080
21431 8032 7003
21432 9698 2002
21433 461  1402
21434 7592 4627
21435 36   834 
21436 3091 4439
21437 725  9877
21438 9824 6731
21439 5228 5501
21440 131  8176
21441 2374 8794
21442 4634 6617
21443 8936 2873
21444 2077 5350
21445 9902 3123
21446 5974 4241
21447 609  5169
21448 488  1011
21449 4335 2535
21450 2856 7451
21451 7323 2434
21452 2719 4969
21453 7700 344 
21454 8757 6615
21455 966  6431
21456 3118 2630
21457 7371 6107
21458 7260 2670
21459 4430 4543
21460 3036 2494
21461 3093 9856
21462 5932 8955
21463 8565 2295
21464 5327 4000
21465 73   8631
21466 2931 7416
21467 1748 6002
21468 8343 8694
21469 9067 663 
21470 6509 3645
21471 8386 5356
21472 56   6429
21473 1563 7512
21474 1652 4769
21475 774  6644
21476 860  7200
21477 1484 1686
21478 493  885 
21479 1032 9690
21480 7893 9454
21481 4682 1727
21482 57   9433
21483 3440 8692
21484 8556 7164
21485 8065 769 
21486 42   8612
21487 2509 7717
21488 413  9633
21489 304  5472
21490 9306 243 
21491 2231 1732
21492 6129 5256
21493 407  2261
21494 9479 5375
21495 18   7548
21496 3581 8656
21497 4757 3520
21498 4908 4868
21499 8896 9168
21500 2803 308 
21501 1664 4578
21502 6447 3959
21503 5405 3774
21504 3056 967 
21505 2287 5945
21506 6717 6782
21507 8781 3588
21508 5080 6565
21509 3065 2196
21510 6410 3016
21511 6737 5982
21512 5645 4299
21513 8734 8224
21514 9101 3416
21515 5070 3934
21516 2625 6766
21517 547  4370
21518 5805 7261
21519 7857 5819
21520 8930 5489
21521 4785 9702
21522 2866 15  
21523 6228 3135
21524 7420 7088
21525 7467 1705
21526 5750 720 
21527 513  4305
21528 7861 9534
21529 9657 2944
21530 3960 621 
21531 2567 715 
21532 809  9624
21533 7874 816 
21534 7061 3426
21535 3459 3014
21536 2135 1850
21537 4544 7614
21538 8774 8817
21539 3149 3988
21540 939  766 
21541 3864 1553
21542 8969 5161
21543 3113 4555
21544 7246 4875
21545 3711 1576
21546 1574 8931
21547 2839 8890
21548 3668 8101
21549 9928 1872
21550 1092 1857
21551 9102 9950
21552 5331 8704
21553 5483 8371
21554 2689 4511
21555 3023 4281
21556 2782 2148
21557 425  4327
21558 1586 9517
21559 1391 8167
21560 7792 7252
21561 4785 9431
21562 3087 3619
21563 2500 7748
21564 7000 3534
21565 5516 5828
21566 7733 4946
21567 7083 4428
21568 9570 4774
21569 226  2986
21570 5183 7574
21571 4424 8626
21572 8290 6543
21573 9792 9416
21574 81   4782
21575 2889 2502
21576 6439 3234
21577 220  1359
21578 2035 3169
21579 2584 1566
21580 8881 4233
21581 4696 3835
21582 3697 606 
21583 3686 2302
21584 6703 872 
21585 3268 735 
21586 7927 1305
21587 106  2920
21588 7637 3343
21589 3684 5743
21590 9424 3867
21591 4193 3721
21592 2763 4842
21593 1374 5402
21594 8224 5269
21595 7668 758 
21596 9796 7409
21597 397  8059
21598 6432 1990
21599 2455 3765
21600 247  1051
21601 2517 1900
21602 5936 4022
21603 3242 1326
21604 4433 249 
21605 8315 4319
21606 9571 7993
21607 4948 2411
21608 6741 80  
21609 3622 3919
21610 939  8295
21611 6096 565 
21612 6659 9395
21613 703  2173
21614 8542 1998
21615 6385 8935
21616 935  2657
21617 6706 5551
21618 8444 4733
21619 3530 9452
21620 5803 4983
21621 3412 3781
21622 4107 1086
21623 5513 30  
21624 3762 8255
21625 4982 6881
21626 68   4318
21627 136  238 
21628 2395 3969
21629 3560 5101
21630 6123 8492
21631 4654 8407
21632 6122 7144
21633 1208 5053
21634 283  7054
21635 1524 4386
21636 5157 4594
21637 4014 8717
21638 3809 5132
21639 7130 3648
21640 1654 4079
21641 8011 1242
21642 1353 512 
21643 1265 8489
21644 1524 6403
21645 3071 6547
21646 5652 673 
21647 2941 5290
21648 2692 4762
21649 5974 6368
21650 942  7466
21651 1444 143 
21652 2418 8506
21653 9445 3406
21654 9055 8507
21655 1653 8131
21656 23   8687
21657 5395 1430
21658 3976 1060
21659 6239 3484
21660 4823 9728
21661 1238 2749
21662 5639 2513
21663 1438 8216
21664 7437 7225
21665 9490 5777
21666 1824 7057
21667 4552 8286
21668 3884 6154
21669 3160 3412
21670 2699 8877
21671 2200 5917
21672 9659 6409
21673 7248 5325
21674 5978 396 
21675 9990 7283
21676 2247 5761
21677 8188 1213
21678 205  5510
21679 9261 8541
21680 651  716 
21681 7667 4287
21682 7097 2353
21683 6165 7100
21684 5105 9205
21685 4553 5183
21686 4853 8672
21687 3266 6818
21688 5424 9971
21689 426  9086
21690 3295 1257
21691 4950 4635
21692 8540 5100
21693 3825 3827
21694 2235 2232
21695 8857 5787
21696 1890 7769
21697 113  9676
21698 4134 4586
21699 8855 1737
21700 2338 697 
21701 6370 3490
21702 27   5686
21703 611  6521
21704 2149 5202
21705 443  299 
21706 9197 4317
21707 7627 4722
21708 8918 3061
21709 6221 1391
21710 1160 7455
21711 591  9774
21712 4039 8162
21713 4568 5737
21714 5097 2017
21715 8252 4916
21716 3674 9193
21717 938  1646
21718 6364 7585
21719 7288 5665
21720 9827 1328
21721 2077 4911
21722 2187 2279
21723 3012 8243
21724 5478 3430
21725 2688 2956
21726 1267 376 
21727 9324 4097
21728 8193 8342
21729 1777 7559
21730 4584 1995
21731 2643 5540
21732 7970 9236
21733 2272 9950
21734 7717 4764
21735 8425 8238
21736 8338 6316
21737 4471 7551
21738 8401 3783
21739 5237 3483
21740 8976 8879
21741 3832 9270
21742 783  9038
21743 4147 3486
21744 7204 4871
21745 3291 4467
21746 8858 2729
21747 5106 6185
21748 3472 655 
21749 2871 5786
21750 806  5210
21751 6835 623 
21752 4784 8416
21753 3156 4497
21754 1695 4134
21755 9372 28  
21756 9300 1867
21757 9139 9004
21758 1972 2409
21759 1931 3628
21760 436  4077
21761 7332 2438
21762 8479 9070
21763 3313 7715
21764 3753 6651
21765 603  6663
21766 7967 6297
21767 9961 4268
21768 2407 9282
21769 2955 4327
21770 4375 7742
21771 4414 8911
21772 8677 7440
21773 683  1660
21774 7660 3347
21775 2322 9533
21776 3542 4791
21777 7929 5791
21778 7354 8438
21779 2943 9111
21780 5441 327 
21781 6034 6184
21782 306  7531
21783 1982 9350
21784 8490 9855
21785 2706 7757
21786 1843 6416
21787 9083 3830
21788 7853 2988
21789 5896 8480
21790 7525 999 
21791 8635 6278
21792 2666 5362
21793 8554 6679
21794 1503 3043
21795 4589 6463
21796 6439 7592
21797 2763 8881
21798 4810 4010
21799 1930 9383
21800 5373 4064
21801 8140 6974
21802 3139 6566
21803 4038 5185
21804 1181 1506
21805 7827 385 
21806 752  8327
21807 3103 1569
21808 3059 9567
21809 4866 5446
21810 1252 1068
21811 2677 2790
21812 4061 634 
21813 4412 8062
21814 8535 7210
21815 1934 9362
21816 7460 4123
21817 8970 1086
21818 6613 7189
21819 1123 1771
21820 6010 4137
21821 1381 9236
21822 6120 2184
21823 9112 6658
21824 3681 9692
21825 5333 8556
21826 5878 4192
21827 6953 1581
21828 4428 4738
21829 1948 3967
21830 5327 3967
21831 9632 4145
21832 1323 2007
21833 8523 6479
21834 4553 1944
21835 4665 7043
21836 1592 1088
21837 184  6473
21838 3402 6020
21839 4431 4320
21840 9686 5830
21841 5646 1406
21842 243  3376
21843 1920 4793
21844 8216 3995
21845 1958 2484
21846 5169 3225
21847 2249 191 
21848 605  5606
21849 2675 9543
21850 5284 6481
21851 3328 6507
21852 4023 7276
21853 334  4118
21854 1329 8903
21855 8204 8920
21856 6356 829 
21857 9749 1586
21858 5900 3797
21859 9516 1851
21860 5413 1874
21861 4459 4735
21862 2516 6442
21863 3192 4835
21864 9341 9037
21865 467  9334
21866 9288 2044
21867 6038 5532
21868 7233 6062
21869 6341 3872
21870 9149 334 
21871 9255 2850
21872 8388 8285
21873 2084 8115
21874 1042 6597
21875 1723 9348
21876 6815 7385
21877 1921 2668
21878 7971 9121
21879 5549 8655
21880 7192 1241
21881 7014 8879
21882 9545 4006
21883 2227 2229
21884 1752 5801
21885 3267 8940
21886 7055 3106
21887 6933 8993
21888 5216 750 
21889 3612 9620
21890 7217 5527
21891 7507 7969
21892 8455 2176
21893 1142 6423
21894 5515 8005
21895 8299 3607
21896 6965 4991
21897 4204 5195
21898 2333 5487
21899 9827 3660
21900 343  9596
21901 8388 2902
21902 8031 7134
21903 6046 1336
21904 3248 2576
21905 5187 4291
21906 6916 7666
21907 5073 1588
21908 9795 60  
21909 486  7512
21910 8525 1128
21911 7165 9421
21912 2145 3754
21913 6280 2448
21914 7577 6473
21915 7068 8888
21916 1082 6102
21917 4347 6445
21918 209  1314
21919 2995 1308
21920 5856 7994
21921 8315 9999
21922 6285 8442
21923 9153 7173
21924 1972 7609
21925 5864 6253
21926 729  3218
21927 7614 9908
21928 35   1537
21929 5088 2087
21930 1339 2033
21931 5750 1352
21932 2975 1109
21933 2431 1825
21934 6841 9605
21935 9141 7568
21936 347  197 
21937 5715 6112
21938 7886 4406
21939 7827 8348
21940 1327 3683
21941 4733 2262
21942 1022 9776
21943 8219 5001
21944 2797 4330
21945 7372 611 
21946 1296 1072
21947 5494 3702
21948 6462 5727
21949 4120 2903
21950 1537 8778
21951 8305 6212
21952 9019 3796
21953 3624 7190
21954 9475 7881
21955 2800 4239
21956 4236 272 
21957 1982 5741
21958 9127 9530
21959 1547 8197
21960 9862 9954
21961 6796 9028
21962 7141 6966
21963 9278 1668
21964 6510 2359
21965 9104 5804
21966 6401 8290
21967 5113 390 
21968 2574 2584
21969 9981 2656
21970 9311 5164
21971 4909 5361
21972 7640 8073
21973 8292 581 
21974 4873 2645
21975 9311 9647
21976 2856 1268
21977 7597 7165
21978 1691 4841
21979 455  7849
21980 3609 140 
21981 2555 2353
21982 4515 5917
21983 9415 5809
21984 1234 2618
21985 5451 8608
21986 1195 8524
21987 1135 3031
21988 9133 51  
21989 668  7661
21990 2010 8848
21991 1876 9542
21992 604  4391
21993 2524 5031
21994 6739 405 
21995 3647 358 
21996 9046 3234
21997 5246 9045
21998 3238 5734
21999 8707 1536
22000 8028 4786
22001 7270 9320
22002 2237 3489
22003 2084 6144
22004 1754 2389
22005 546  6537
22006 7201 6391
22007 8817 4394
22008 849  6301
22009 4773 6924
22010 5777 9918
22011 5417 6975
22012 3737 8617
22013 4735 7466
22014 5670 6473
22015 7639 5387
22016 7358 7496
22017 2173 246 
22018 246  2546
22019 473  7598
22020 5722 8977
22021 8385 5575
22022 7565 7689
22023 3897 7946
22024 3857 7763
22025 8589 9869
22026 7317 5418
22027 8535 1275
22028 85   4206
22029 6732 194 
22030 6255 9494
22031 4008 4148
22032 5660 8314
22033 4063 2891
22034 6241 6038
22035 6075 2040
22036 7296 9638
22037 9314 1935
22038 1310 5562
22039 9020 4977
22040 5441 4849
22041 65   1510
22042 8331 2680
22043 3831 6694
22044 5656 8436
22045 6905 1899
22046 5100 7444
22047 2457 365 
22048 4004 3914
22049 5233 678 
22050 8805 9099
22051 5459 3300
22052 9249 5905
22053 7989 739 
22054 9666 4311
22055 5423 5289
22056 3130 3758
22057 971  2562
22058 3446 8358
22059 9392 2350
22060 9020 8838
22061 637  6907
22062 5171 359 
22063 1108 9820
22064 7177 6975
22065 9195 792 
22066 1173 1041
22067 8274 2792
22068 1339 7433
22069 168  2202
22070 8497 4403
22071 4157 4818
22072 4170 7556
22073 3174 3912
22074 8518 3559
22075 9279 8790
22076 4178 1670
22077 4492 400 
22078 1877 1990
22079 6312 1104
22080 3699 3144
22081 9593 2699
22082 256  3316
22083 666  9302
22084 3328 1580
22085 1973 2500
22086 380  7227
22087 7459 6535
22088 704  5184
22089 5859 5443
22090 5379 3479
22091 1410 8751
22092 5535 7988
22093 4369 4462
22094 515  9979
22095 4305 1604
22096 6896 487 
22097 8572 2603
22098 4718 2299
22099 704  9355
22100 1911 2351
22101 932  7166
22102 278  5792
22103 8193 6337
22104 9903 1005
22105 7213 8771
22106 3511 6481
22107 6150 1450
22108 593  4767
22109 5061 5428
22110 3742 2046
22111 3702 7723
22112 7339 8207
22113 3533 3883
22114 6934 3757
22115 6270 5611
22116 3055 3693
22117 3815 699 
22118 6326 2064
22119 767  6705
22120 4274 1331
22121 9743 6185
22122 6436 2759
22123 7667 745 
22124 7313 6086
22125 9053 4851
22126 1003 2408
22127 9946 1482
22128 8523 1336
22129 4126 5825
22130 5569 4047
22131 6125 5542
22132 6960 27  
22133 5230 7354
22134 6875 6532
22135 4615 7819
22136 2588 3852
22137 5581 2488
22138 3360 9457
22139 8731 9543
22140 2535 9861
22141 1182 1996
22142 8040 9347
22143 2942 355 
22144 4689 4822
22145 2499 1882
22146 8145 28  
22147 8013 9896
22148 7499 8238
22149 7470 6133
22150 2000 5800
22151 5341 149 
22152 1711 5323
22153 6648 2936
22154 2174 3205
22155 2394 5749
22156 6622 7137
22157 6866 1334
22158 1197 198 
22159 2836 2886
22160 6384 3212
22161 6012 7140
22162 8824 1874
22163 4364 1504
22164 8845 9273
22165 979  2926
22166 6692 6256
22167 6919 6078
22168 3678 1587
22169 167  9590
22170 8531 1697
22171 2225 1380
22172 6185 4366
22173 4755 27  
22174 8157 8323
22175 6517 411 
22176 341  9633
22177 7717 7608
22178 5650 5351
22179 1394 4752
22180 4088 4675
22181 1953 8968
22182 5402 1348
22183 9095 5078
22184 7393 2433
22185 9169 8103
22186 8235 7973
22187 142  237 
22188 2459 3527
22189 7705 2990
22190 8180 2632
22191 5293 6174
22192 6781 3722
22193 3853 5499
22194 9626 7874
22195 5315 3781
22196 6189 8322
22197 8122 7035
22198 654  9797
22199 5684 4606
22200 3398 5654
22201 9205 4977
22202 7398 4442
22203 5140 1975
22204 7836 8043
22205 7940 9901
22206 7613 8429
22207 1041 7449
22208 274  5951
22209 7271 8491
22210 7292 487 
22211 7509 8236
22212 2300 2182
22213 154  3666
22214 6719 5707
22215 9984 8275
22216 6991 3403
22217 9206 3588
22218 8016 6998
22219 6821 352 
22220 5750 9340
22221 1668 7155
22222 8128 5945
22223 1770 5671
22224 6019 5578
22225 1582 9138
22226 5449 1334
22227 293  3129
22228 3735 6574
22229 1897 6788
22230 3642 1333
22231 6390 3377
22232 3981 6640
22233 5502 2340
22234 7020 2183
22235 6518 1028
22236 3758 9388
22237 3309 3091
22238 8684 9706
22239 987  6050
22240 1431 4158
22241 7045 9860
22242 5937 8454
22243 4390 840 
22244 6184 4727
22245 7768 3676
22246 5794 818 
22247 3211 575 
22248 9535 2099
22249 4400 6628
22250 7301 8781
22251 4653 3719
22252 8455 9194
22253 9946 6577
22254 5798 869 
22255 6161 3557
22256 6061 1485
22257 6295 8785
22258 3772 2743
22259 1763 1012
22260 424  3913
22261 1296 4566
22262 7111 8979
22263 5558 9138
22264 8934 7981
22265 8634 1457
22266 4241 282 
22267 3479 8281
22268 9048 5523
22269 9604 2790
22270 467  9617
22271 1559 553 
22272 9817 4218
22273 8513 2405
22274 5078 5833
22275 4539 5602
22276 3851 5362
22277 5422 9966
22278 9363 2588
22279 6707 2144
22280 944  5146
22281 690  7794
22282 8053 4147
22283 2341 8740
22284 7093 1077
22285 637  4872
22286 3138 1695
22287 7666 6436
22288 7876 9325
22289 9674 1979
22290 2960 9413
22291 5842 3631
22292 161  5775
22293 429  3870
22294 3780 747 
22295 1916 9458
22296 7896 6115
22297 8935 6896
22298 4782 4163
22299 3488 7837
22300 6929 9512
22301 7617 4195
22302 5018 7470
22303 578  1801
22304 9798 380 
22305 4985 3077
22306 7255 1262
22307 6884 8285
22308 7914 9224
22309 9127 1825
22310 9482 2352
22311 2777 864 
22312 1438 2853
22313 9400 1473
22314 5174 4877
22315 7823 3107
22316 137  3880
22317 7084 7652
22318 2313 1803
22319 5794 4163
22320 7916 7153
22321 4299 9838
22322 1141 5958
22323 5003 4431
22324 3655 7304
22325 9384 4556
22326 4571 6872
22327 1966 4344
22328 1984 6220
22329 5839 4907
22330 8662 4257
22331 3756 4896
22332 9974 9964
22333 46   9421
22334 5378 7914
22335 892  3426
22336 436  6844
22337 5459 204 
22338 2913 969 
22339 4255 9084
22340 5783 7934
22341 3931 112 
22342 3750 5659
22343 9219 1882
22344 2697 6743
22345 3692 8945
22346 5848 4194
22347 2997 6731
22348 3405 5758
22349 6708 1392
22350 6890 639 
22351 518  2349
22352 7087 6148
22353 1239 249 
22354 3000 3550
22355 5940 9622
22356 1277 4702
22357 5589 1527
22358 7402 9175
22359 6498 5838
22360 1049 982 
22361 3764 8880
22362 617  2280
22363 9783 8143
22364 2072 5910
22365 4932 4959
22366 6364 9310
22367 9406 8293
22368 2585 3785
22369 1396 7703
22370 4305 7590
22371 7566 7269
22372 1453 3428
22373 6627 7242
22374 2027 899 
22375 4496 8668
22376 5322 4660
22377 2143 7668
22378 7322 3152
22379 1832 5339
22380 3178 8790
22381 1908 5742
22382 2653 6854
22383 1886 2081
22384 4346 5312
22385 870  3233
22386 1612 5638
22387 8183 590 
22388 3532 9116
22389 4700 2258
22390 2292 7499
22391 5871 7786
22392 9069 294 
22393 7811 1118
22394 5150 9082
22395 7785 1570
22396 4926 5379
22397 1185 8174
22398 5373 2575
22399 2800 9937
22400 6953 6113
22401 81   7638
22402 6243 8646
22403 6301 1049
22404 8532 9074
22405 8117 6253
22406 5190 1605
22407 7251 2421
22408 3708 4017
22409 9723 3065
22410 7417 5421
22411 8908 4490
22412 9953 9346
22413 5136 8395
22414 9007 4205
22415 6571 8036
22416 5079 5173
22417 283  6844
22418 1750 6910
22419 1401 2655
22420 8468 2965
22421 21   989 
22422 4144 7791
22423 2566 4114
22424 7109 7997
22425 1489 1362
22426 511  902 
22427 6585 8594
22428 9468 1641
22429 4446 8381
22430 7461 7225
22431 7185 4122
22432 3412 7001
22433 1827 6327
22434 4374 2569
22435 5299 3720
22436 257  6133
22437 183  6003
22438 8349 9905
22439 2334 1914
22440 1380 8464
22441 3894 7026
22442 340  722 
22443 303  9221
22444 7540 3342
22445 5804 609 
22446 3492 3822
22447 1931 6013
22448 5926 8857
22449 480  9097
22450 9843 8606
22451 8714 3691
22452 5543 7116
22453 2327 1526
22454 1712 3048
22455 5524 8564
22456 8348 2721
22457 5231 2162
22458 15   6921
22459 3049 1523
22460 7923 5266
22461 2720 5152
22462 6047 9693
22463 7803 4088
22464 618  5712
22465 6211 7575
22466 1028 4269
22467 5205 2436
22468 5659 2787
22469 1649 9961
22470 3619 2014
22471 6702 7194
22472 671  6857
22473 3261 3786
22474 3691 9390
22475 7908 930 
22476 8807 7421
22477 1700 7899
22478 4554 8629
22479 8054 7538
22480 1399 7374
22481 8658 3026
22482 5441 6538
22483 9124 9492
22484 3016 6037
22485 8308 4356
22486 2917 8543
22487 1403 8494
22488 8750 4294
22489 3607 4771
22490 7485 6949
22491 9920 7382
22492 3672 637 
22493 2678 9773
22494 4747 1701
22495 5785 9234
22496 5695 7813
22497 5769 7939
22498 3399 5939
22499 4406 9566
22500 5860 842 
22501 6567 8206
22502 3173 6   
22503 8872 822 
22504 7029 4610
22505 4079 38  
22506 1330 5441
22507 3288 767 
22508 7115 42  
22509 2192 3560
22510 2508 402 
22511 9530 2844
22512 7201 8260
22513 776  6410
22514 2523 7396
22515 2831 5927
22516 2177 1987
22517 4491 2718
22518 9544 5164
22519 2243 9929
22520 9165 4605
22521 1593 3522
22522 3476 3285
22523 6150 3388
22524 2393 6446
22525 9912 1825
22526 1693 4857
22527 9260 8137
22528 7865 796 
22529 8374 1876
22530 8063 58  
22531 5477 9422
22532 6164 6125
22533 4213 8820
22534 3254 3991
22535 4716 2830
22536 2117 6897
22537 5149 3734
22538 9311 1528
22539 5944 1942
22540 3881 2228
22541 3570 1263
22542 6750 5716
22543 2677 2179
22544 771  2361
22545 9514 3332
22546 7499 3000
22547 5246 6214
22548 6348 3618
22549 4930 6903
22550 6370 8101
22551 5076 2385
22552 5615 6093
22553 9755 398 
22554 1080 5852
22555 5086 7094
22556 7749 8980
22557 4103 6737
22558 4170 6623
22559 1183 1737
22560 197  1286
22561 8298 7544
22562 9114 5299
22563 6932 8886
22564 8923 8208
22565 5168 9910
22566 4172 2546
22567 2815 5261
22568 8485 9871
22569 9040 9582
22570 8336 6622
22571 8035 8897
22572 132  9243
22573 6808 7940
22574 7003 4330
22575 4201 8697
22576 3632 4583
22577 8273 7539
22578 5787 9819
22579 8120 1447
22580 4325 9112
22581 7860 2833
22582 7749 3970
22583 6855 1283
22584 3265 2264
22585 9594 8603
22586 787  9836
22587 8810 7777
22588 2421 1771
22589 2947 1157
22590 4472 6302
22591 5191 6627
22592 9804 5268
22593 5656 9691
22594 3091 974 
22595 4923 781 
22596 3505 5029
22597 1224 952 
22598 6707 5403
22599 435  2203
22600 7579 9924
22601 4558 6510
22602 8160 1730
22603 7341 8258
22604 8952 8829
22605 4468 4931
22606 7327 8435
22607 7859 3716
22608 4756 5565
22609 8674 5984
22610 4935 9776
22611 5544 9277
22612 1615 4019
22613 1092 5024
22614 6533 6217
22615 7588 4100
22616 8871 7481
22617 1358 719 
22618 9449 1925
22619 6407 4573
22620 6001 8861
22621 3122 9288
22622 2029 6015
22623 1322 9974
22624 2088 5540
22625 2046 8801
22626 1143 4266
22627 5795 1965
22628 9227 4264
22629 7073 1316
22630 2586 1794
22631 9691 1827
22632 7401 4832
22633 2211 5475
22634 5118 8590
22635 1454 6585
22636 1803 1975
22637 6235 3755
22638 4017 8326
22639 8307 5315
22640 1829 8452
22641 1637 8657
22642 5131 4253
22643 4834 9477
22644 844  7175
22645 6918 5122
22646 3612 8450
22647 8009 765 
22648 7561 3211
22649 9377 7637
22650 2827 1543
22651 948  4474
22652 1341 9365
22653 9167 2529
22654 4350 6059
22655 7065 6203
22656 1832 1799
22657 9031 4410
22658 2869 2174
22659 9019 2988
22660 4478 3600
22661 3647 9890
22662 2788 7507
22663 9604 1934
22664 5669 3609
22665 5155 3999
22666 2221 7475
22667 2970 7783
22668 5267 4650
22669 5610 7203
22670 3968 2850
22671 4822 5206
22672 959  201 
22673 5820 4393
22674 6544 719 
22675 8929 2282
22676 9767 6204
22677 475  8061
22678 5624 8082
22679 2867 5734
22680 6843 2623
22681 4668 7463
22682 3907 2769
22683 1588 7543
22684 8404 5506
22685 2254 82  
22686 6822 4214
22687 691  2807
22688 8792 6483
22689 3754 9969
22690 7169 1677
22691 6561 7440
22692 1196 9752
22693 4656 7612
22694 6573 7329
22695 7042 3696
22696 3492 2349
22697 7142 889 
22698 5146 8780
22699 2397 7538
22700 2953 2388
22701 3946 8522
22702 9998 2948
22703 2899 8593
22704 3177 3975
22705 8135 2101
22706 6065 7   
22707 7607 7804
22708 1204 3682
22709 5914 3613
22710 584  9622
22711 6059 3065
22712 8915 2418
22713 9629 7891
22714 5462 7827
22715 7828 7081
22716 9557 8241
22717 6862 7618
22718 6355 9768
22719 2259 4754
22720 6618 8480
22721 6636 1548
22722 56   3493
22723 8973 8305
22724 290  7126
22725 8315 6952
22726 5094 8652
22727 8130 9902
22728 1371 2464
22729 5983 8134
22730 9227 4574
22731 9997 5294
22732 3806 9131
22733 440  5357
22734 5531 1481
22735 8085 6647
22736 8637 942 
22737 9997 8856
22738 9472 5145
22739 6255 8670
22740 1297 9534
22741 3153 7351
22742 5965 8692
22743 4630 1918
22744 8482 5607
22745 3723 420 
22746 1787 121 
22747 3189 4738
22748 8543 122 
22749 5598 8732
22750 3915 4853
22751 6840 6177
22752 9078 2112
22753 9481 12  
22754 2079 6762
22755 2031 5991
22756 7915 8568
22757 5471 4545
22758 1003 4612
22759 2150 6314
22760 3638 2313
22761 6087 8677
22762 7022 302 
22763 1211 2205
22764 1000 5293
22765 5182 1484
22766 2328 4904
22767 9187 6297
22768 5353 9601
22769 9229 2384
22770 15   2057
22771 3815 7298
22772 3518 9165
22773 21   2825
22774 228  9186
22775 4326 4367
22776 5865 4089
22777 189  2280
22778 3250 7847
22779 8095 3931
22780 1154 8333
22781 5721 1518
22782 3198 8402
22783 8038 4454
22784 6342 3648
22785 4484 5008
22786 8883 6200
22787 4640 5861
22788 6659 7571
22789 2752 354 
22790 6812 6235
22791 5120 1121
22792 9396 5452
22793 5699 7734
22794 6215 6758
22795 8362 3268
22796 5711 1557
22797 7611 4625
22798 1485 8958
22799 9357 6453
22800 398  3005
22801 1560 9350
22802 4757 5399
22803 314  8138
22804 1199 5299
22805 1287 1359
22806 7072 3353
22807 5008 6441
22808 8619 3830
22809 6748 1154
22810 2503 8030
22811 863  8813
22812 2890 7093
22813 3580 8699
22814 6050 7933
22815 1018 4289
22816 6982 9286
22817 9382 9364
22818 9696 6214
22819 8339 8810
22820 3707 5532
22821 180  3856
22822 3762 4266
22823 6089 5147
22824 4152 5221
22825 8267 3331
22826 6811 7959
22827 2853 6648
22828 4566 3310
22829 987  7942
22830 5591 9038
22831 9315 7288
22832 8519 1167
22833 4303 5305
22834 4289 5136
22835 1545 4072
22836 5179 6163
22837 6039 5769
22838 2403 3261
22839 8085 3122
22840 2641 4177
22841 8615 8130
22842 7282 4298
22843 1871 1101
22844 4398 9854
22845 9311 8137
22846 6764 9306
22847 7113 1711
22848 7248 8957
22849 1320 2355
22850 913  6619
22851 7217 2378
22852 6167 4937
22853 8593 178 
22854 9211 9711
22855 9887 7600
22856 5551 3152
22857 521  6278
22858 4899 5349
22859 9177 6481
22860 5475 5069
22861 6131 9255
22862 7559 8306
22863 9011 2   
22864 2386 2770
22865 8763 3421
22866 3203 3235
22867 2850 2121
22868 1681 3936
22869 859  7545
22870 682  1446
22871 6001 8798
22872 1989 8500
22873 4315 9931
22874 2751 8165
22875 6507 7689
22876 602  1468
22877 2851 3038
22878 7619 5941
22879 7511 9282
22880 3061 3813
22881 9031 4554
22882 9003 4326
22883 6221 3531
22884 7439 347 
22885 9997 6927
22886 9153 1282
22887 1502 948 
22888 2859 9609
22889 9924 6679
22890 4137 8388
22891 1569 2432
22892 4022 6573
22893 8590 6611
22894 5536 178 
22895 7409 1410
22896 6979 4755
22897 6957 8841
22898 987  9865
22899 5635 6843
22900 6447 8859
22901 2330 4021
22902 6584 2440
22903 115  2690
22904 4850 9579
22905 9908 7152
22906 3540 8186
22907 2967 1660
22908 9929 439 
22909 9311 9304
22910 7837 4152
22911 1722 2378
22912 5309 4814
22913 7931 6236
22914 8011 8904
22915 7783 4013
22916 18   731 
22917 809  252 
22918 9539 1781
22919 777  1194
22920 2743 5518
22921 2777 8059
22922 7047 9904
22923 2978 6998
22924 3317 3562
22925 2088 2695
22926 7836 4327
22927 9108 6133
22928 4844 4844
22929 2080 6687
22930 330  8305
22931 4439 1873
22932 994  1653
22933 8874 4857
22934 4922 3749
22935 2076 9836
22936 6069 4206
22937 4543 5596
22938 6477 8940
22939 3584 9550
22940 9004 3879
22941 7111 440 
22942 6712 7147
22943 4197 9832
22944 3101 7775
22945 553  3697
22946 5463 5766
22947 7045 1788
22948 7421 9210
22949 8914 8655
22950 352  6552
22951 5536 6188
22952 7272 1732
22953 7051 8676
22954 3839 3822
22955 5749 1047
22956 6111 1936
22957 5950 6775
22958 2111 6459
22959 2811 5816
22960 5796 8942
22961 4098 7543
22962 5686 5350
22963 5362 450 
22964 6604 6794
22965 8329 2458
22966 5494 7894
22967 1866 1657
22968 3679 602 
22969 6460 8981
22970 4957 9505
22971 8799 1972
22972 137  6470
22973 1273 9110
22974 464  8076
22975 2632 8782
22976 1483 9323
22977 4037 8133
22978 6017 3311
22979 6507 2944
22980 2918 5530
22981 5404 2942
22982 3255 2237
22983 4232 7466
22984 1280 7025
22985 8798 5593
22986 2559 8252
22987 1513 8643
22988 7708 7862
22989 4052 1011
22990 8933 2747
22991 4337 7393
22992 7326 6877
22993 2186 9202
22994 7421 4597
22995 4336 1627
22996 4993 488 
22997 6415 5523
22998 3993 5768
22999 2052 8991
23000 8162 452 
23001 3986 7414
23002 4015 4920
23003 5382 8648
23004 7448 4977
23005 136  3179
23006 5521 6539
23007 7118 6118
23008 420  3319
23009 2480 9721
23010 2676 2529
23011 8420 2734
23012 2360 9658
23013 3095 8994
23014 1226 9487
23015 5419 5633
23016 1198 9385
23017 4592 113 
23018 1623 5662
23019 2822 3004
23020 9448 8192
23021 6743 7643
23022 7315 1226
23023 3510 6049
23024 9416 7333
23025 1334 5859
23026 8308 685 
23027 8964 8038
23028 8038 5917
23029 1711 576 
23030 9635 7998
23031 9865 4286
23032 3839 7234
23033 9654 8412
23034 2733 918 
23035 7575 1054
23036 6380 9204
23037 2984 9087
23038 1228 8920
23039 8302 1825
23040 8988 5583
23041 1444 7180
23042 6422 6310
23043 2447 5173
23044 9773 5264
23045 3101 7073
23046 6676 8868
23047 8493 7029
23048 1772 5249
23049 3930 470 
23050 5395 2689
23051 4952 1109
23052 6048 4150
23053 6266 7135
23054 7285 1264
23055 4667 1855
23056 4240 6355
23057 1373 2756
23058 1486 6557
23059 6856 2008
23060 6555 4050
23061 2335 8400
23062 1100 787 
23063 8552 1182
23064 7487 9217
23065 2581 3534
23066 7957 1398
23067 5671 8315
23068 5718 4634
23069 9967 9569
23070 6300 3893
23071 319  2370
23072 2904 3734
23073 114  84  
23074 490  8816
23075 6147 5630
23076 1830 7843
23077 4118 2299
23078 4606 3351
23079 1273 5658
23080 6086 9209
23081 7624 4091
23082 3420 647 
23083 4890 2291
23084 5308 3474
23085 3869 7826
23086 9474 3508
23087 8664 941 
23088 4281 4360
23089 4397 4042
23090 1143 5267
23091 62   9914
23092 821  598 
23093 6402 7712
23094 874  532 
23095 5099 7214
23096 5539 4445
23097 6798 7753
23098 7018 4235
23099 6187 7988
23100 9538 108 
23101 4439 7259
23102 5155 5914
23103 9819 1646
23104 7089 7350
23105 9837 1918
23106 9232 1169
23107 6973 2588
23108 9073 1629
23109 2295 8745
23110 5990 9763
23111 831  5655
23112 7335 1547
23113 6468 7954
23114 4845 2145
23115 1065 8970
23116 4526 4032
23117 9642 3680
23118 2155 7090
23119 7402 3625
23120 4914 4161
23121 726  9109
23122 3149 4259
23123 840  4363
23124 8708 1208
23125 6954 7682
23126 632  8083
23127 524  1812
23128 7965 6546
23129 1101 3399
23130 2434 305 
23131 6520 3079
23132 2459 8766
23133 7164 7138
23134 4658 8732
23135 7577 3233
23136 8083 9308
23137 5758 4811
23138 7415 3180
23139 2051 7472
23140 1339 1283
23141 2590 27  
23142 397  3117
23143 3754 1130
23144 1724 8989
23145 3345 4875
23146 6151 7090
23147 1588 3613
23148 9867 2843
23149 2292 1114
23150 6129 8457
23151 410  7668
23152 267  5157
23153 6778 4092
23154 8658 3629
23155 1195 4096
23156 3692 1962
23157 3028 1819
23158 7259 3290
23159 5588 8757
23160 5815 4003
23161 7533 5224
23162 7495 8488
23163 1359 1391
23164 4952 5756
23165 618  8240
23166 8831 8335
23167 8117 1960
23168 9556 3325
23169 7446 200 
23170 9534 3557
23171 5616 9038
23172 5862 2084
23173 6435 6804
23174 6147 459 
23175 7144 3871
23176 1021 3286
23177 5115 3938
23178 1365 6138
23179 437  1206
23180 3672 1669
23181 156  8163
23182 8994 5600
23183 75   4782
23184 7887 6958
23185 8457 5798
23186 8237 6966
23187 5843 6271
23188 8387 5849
23189 2447 6986
23190 3503 3645
23191 832  9861
23192 4176 4250
23193 7429 9504
23194 2132 4539
23195 893  7815
23196 6685 5107
23197 9195 5817
23198 2534 7471
23199 2223 4729
23200 111  9273
23201 4330 8729
23202 7098 546 
23203 7242 4338
23204 1316 1621
23205 3398 3985
23206 5300 9390
23207 7492 2825
23208 6410 8115
23209 4559 2374
23210 6742 2539
23211 1618 2847
23212 3083 5193
23213 5112 7006
23214 2630 6588
23215 3574 3215
23216 1754 1484
23217 8061 9862
23218 7702 4099
23219 6927 7543
23220 7565 24  
23221 9580 6693
23222 4899 6055
23223 6198 4380
23224 3106 4597
23225 4485 6866
23226 4746 4602
23227 8741 1224
23228 2041 6807
23229 1811 5234
23230 4732 2154
23231 3332 8237
23232 8885 6725
23233 4942 3964
23234 4012 623 
23235 7239 666 
23236 1658 3491
23237 280  4144
23238 5406 7325
23239 3668 4487
23240 5339 3242
23241 4051 5753
23242 3225 5569
23243 3927 1747
23244 3381 2095
23245 6192 4351
23246 2786 5675
23247 1684 3550
23248 4123 1508
23249 834  6914
23250 2079 2026
23251 4764 1119
23252 1598 271 
23253 1169 9144
23254 1854 7472
23255 5920 6462
23256 9813 300 
23257 420  7560
23258 8218 3670
23259 2073 8812
23260 7993 4653
23261 164  4825
23262 4635 9897
23263 8241 4879
23264 3387 3503
23265 4591 8384
23266 1309 4288
23267 3291 6972
23268 3960 8814
23269 3125 2865
23270 8118 9341
23271 6790 6436
23272 4581 6250
23273 2097 7420
23274 991  1922
23275 1145 6319
23276 1531 421 
23277 8388 9632
23278 6590 7468
23279 5183 6825
23280 3391 4302
23281 9398 1713
23282 6567 9805
23283 8873 4214
23284 6162 4186
23285 4256 5515
23286 8118 9913
23287 8363 4913
23288 8350 1594
23289 3871 297 
23290 8810 4135
23291 1303 9206
23292 1013 9858
23293 6495 7162
23294 8596 8464
23295 3945 5083
23296 1076 2200
23297 4874 8326
23298 7490 6614
23299 7676 44  
23300 3830 650 
23301 4285 8779
23302 6161 6146
23303 3924 8106
23304 6478 5644
23305 7091 3319
23306 2979 9636
23307 4622 4936
23308 5167 1723
23309 5805 3980
23310 5521 7045
23311 9129 8463
23312 3874 5153
23313 2811 7047
23314 8312 873 
23315 2940 9860
23316 609  7350
23317 2171 5420
23318 8131 5739
23319 4953 6702
23320 3215 4901
23321 9791 639 
23322 3997 3634
23323 9520 5981
23324 4547 1638
23325 7242 3607
23326 9106 7370
23327 7099 5057
23328 7607 4017
23329 1790 5308
23330 8254 8312
23331 5188 7151
23332 3121 3583
23333 1932 5118
23334 9082 5779
23335 2672 1808
23336 2738 2934
23337 5428 5378
23338 8837 32  
23339 9526 9721
23340 7606 397 
23341 1014 5430
23342 9313 5645
23343 3468 5598
23344 6862 4768
23345 2342 502 
23346 9462 5716
23347 4107 7755
23348 6810 6207
23349 2803 3980
23350 1772 7454
23351 2313 7550
23352 2101 2683
23353 1758 8884
23354 9332 8778
23355 5042 4587
23356 2139 8374
23357 2626 9478
23358 8159 8487
23359 1005 5454
23360 1381 9356
23361 3062 4644
23362 1669 8527
23363 8951 1101
23364 6831 5327
23365 5677 3544
23366 5323 8963
23367 9720 9337
23368 3551 89  
23369 4749 6846
23370 133  2280
23371 9596 6213
23372 9909 8724
23373 6843 8378
23374 7182 2608
23375 7889 3896
23376 7006 8351
23377 2180 3993
23378 9926 7931
23379 618  8256
23380 9443 7812
23381 8649 750 
23382 2664 8514
23383 5671 2561
23384 4614 4310
23385 8766 638 
23386 7648 9603
23387 6864 7570
23388 8291 2551
23389 4110 9337
23390 4509 8820
23391 2436 4279
23392 1077 3909
23393 849  1426
23394 6193 3155
23395 6648 6468
23396 5324 2776
23397 5673 5425
23398 2877 7129
23399 2710 9151
23400 3316 7163
23401 5126 4590
23402 862  59  
23403 8593 2579
23404 2682 9684
23405 1666 3115
23406 8997 6162
23407 8329 4829
23408 7909 2196
23409 9093 1851
23410 2007 8635
23411 6771 7681
23412 7522 4263
23413 1710 8043
23414 5421 2028
23415 9723 5358
23416 535  2365
23417 1605 3644
23418 2219 2470
23419 5816 4628
23420 7656 408 
23421 3001 1988
23422 1861 2087
23423 5619 7736
23424 5533 8324
23425 4333 3220
23426 8436 876 
23427 6278 778 
23428 2640 162 
23429 4056 1700
23430 3122 1818
23431 9554 592 
23432 982  4679
23433 5398 9409
23434 1534 103 
23435 5339 7900
23436 5186 8539
23437 4630 1169
23438 771  8104
23439 174  4238
23440 9501 6278
23441 395  4348
23442 993  1297
23443 1849 6535
23444 7447 7476
23445 3235 1925
23446 6249 4571
23447 5408 6260
23448 1338 278 
23449 9143 8599
23450 2051 2024
23451 30   8281
23452 1606 5786
23453 5301 9427
23454 4122 7032
23455 1873 3389
23456 600  4962
23457 4591 5796
23458 5455 6323
23459 3591 6326
23460 4061 8559
23461 2205 569 
23462 3040 1756
23463 603  1562
23464 2697 3206
23465 8915 8766
23466 3949 1664
23467 6349 140 
23468 8885 3631
23469 8310 1687
23470 260  742 
23471 4172 3097
23472 7127 1731
23473 1511 9661
23474 8300 1974
23475 4187 3200
23476 4342 1304
23477 247  3476
23478 9619 5953
23479 1570 9979
23480 7817 470 
23481 3961 4263
23482 6869 8848
23483 1021 67  
23484 37   7552
23485 3284 943 
23486 2216 9317
23487 7625 1177
23488 4872 4611
23489 3174 4562
23490 5653 7702
23491 8880 2979
23492 2285 260 
23493 4700 9423
23494 4132 8693
23495 9915 1814
23496 3090 4714
23497 8752 4364
23498 7857 1372
23499 1794 340 
23500 911  380 
23501 7128 9037
23502 3382 6566
23503 1421 6558
23504 8051 4331
23505 1379 7001
23506 7247 8341
23507 8597 8211
23508 8346 8175
23509 642  8008
23510 9472 7314
23511 5576 9194
23512 2715 2282
23513 1096 7592
23514 425  2733
23515 7800 6929
23516 1396 5941
23517 2247 8653
23518 2491 388 
23519 3532 4446
23520 5073 4954
23521 4639 4544
23522 5839 1667
23523 1544 2292
23524 1108 2067
23525 1999 2864
23526 5769 954 
23527 6832 8061
23528 3653 2349
23529 3911 6174
23530 7238 8603
23531 630  5281
23532 204  6350
23533 1891 5014
23534 5143 223 
23535 7592 4481
23536 9268 2370
23537 5461 8168
23538 9748 9416
23539 9552 7500
23540 4142 9500
23541 4010 6832
23542 6589 438 
23543 8233 5597
23544 2609 9101
23545 8242 5982
23546 2854 3918
23547 4726 1208
23548 2012 6032
23549 9524 4309
23550 5210 1405
23551 6481 4798
23552 8357 5721
23553 714  8096
23554 4984 7734
23555 7280 4688
23556 4145 7069
23557 8746 2619
23558 637  153 
23559 2005 2584
23560 2563 971 
23561 1287 2750
23562 1682 5053
23563 3764 137 
23564 3037 5496
23565 8630 2204
23566 4719 485 
23567 4311 9910
23568 866  9470
23569 6278 1592
23570 2985 4327
23571 6678 8167
23572 7662 4256
23573 6125 5480
23574 8656 9839
23575 4720 2481
23576 8756 7415
23577 5884 4061
23578 2961 2676
23579 7195 3856
23580 62   7525
23581 5635 4420
23582 2157 4750
23583 7381 6369
23584 2020 4804
23585 9360 9922
23586 9443 9907
23587 392  4103
23588 8651 8007
23589 1338 1531
23590 3076 4548
23591 8570 6349
23592 6078 6918
23593 6756 8457
23594 3292 4329
23595 6354 8026
23596 2859 2298
23597 8396 6155
23598 2817 6786
23599 4616 6798
23600 7994 5302
23601 9144 6117
23602 7210 7545
23603 9553 1724
23604 1666 5737
23605 5201 223 
23606 5644 9272
23607 6420 6926
23608 6043 4595
23609 1725 6848
23610 6059 9567
23611 1502 5993
23612 8866 478 
23613 9274 451 
23614 8464 2522
23615 853  231 
23616 3243 3251
23617 8058 4911
23618 324  6739
23619 20   3800
23620 2192 6846
23621 5936 9116
23622 3711 7803
23623 9942 2312
23624 2938 8845
23625 7587 3707
23626 1091 6885
23627 7022 7051
23628 365  623 
23629 1685 8130
23630 7426 766 
23631 1040 8832
23632 5723 1445
23633 7699 7883
23634 6710 4084
23635 4450 1333
23636 8961 2668
23637 9390 9854
23638 5075 3623
23639 2048 2616
23640 3540 7645
23641 2360 5878
23642 4167 7901
23643 1442 9220
23644 2115 4921
23645 344  722 
23646 7484 4558
23647 3380 4744
23648 9302 4060
23649 1992 8227
23650 8168 5407
23651 3758 840 
23652 4580 970 
23653 2996 7660
23654 1537 6806
23655 2633 8386
23656 6134 9787
23657 5263 4574
23658 7636 9666
23659 745  2409
23660 8998 7203
23661 191  5499
23662 5872 3833
23663 4817 3598
23664 7843 8891
23665 5619 9867
23666 2909 1019
23667 3267 7589
23668 1997 8417
23669 1171 2034
23670 9645 217 
23671 3545 8504
23672 2561 6267
23673 1791 954 
23674 9606 6552
23675 5366 5478
23676 8630 385 
23677 9586 5451
23678 297  1766
23679 552  2597
23680 184  6620
23681 3170 1951
23682 8742 8737
23683 5953 5582
23684 1675 8771
23685 5990 2330
23686 6308 9181
23687 3970 8380
23688 686  4582
23689 1036 3512
23690 9290 1504
23691 2299 3965
23692 5512 2361
23693 8694 5241
23694 2588 1151
23695 3466 3441
23696 8899 2248
23697 4905 2960
23698 3482 299 
23699 8908 9469
23700 6417 9197
23701 975  4855
23702 2527 595 
23703 6607 7683
23704 9429 1789
23705 9364 8403
23706 8167 4982
23707 7370 822 
23708 6336 5633
23709 6614 1583
23710 9948 4278
23711 5731 8585
23712 2954 6740
23713 6957 9864
23714 7844 9278
23715 7    5443
23716 6827 7247
23717 2792 2583
23718 8733 6014
23719 7078 9692
23720 5286 6307
23721 739  4937
23722 6339 1255
23723 4712 8022
23724 1749 3811
23725 4999 4478
23726 6784 7774
23727 7751 2582
23728 8453 4194
23729 3615 970 
23730 1014 6260
23731 5939 4572
23732 454  4134
23733 8686 6878
23734 6709 8803
23735 8958 6891
23736 3918 4161
23737 8417 2835
23738 5949 8931
23739 8769 1495
23740 7108 4593
23741 6622 2506
23742 5559 4090
23743 7335 8913
23744 4541 2852
23745 331  1683
23746 4900 5660
23747 8946 6252
23748 7893 3073
23749 9654 5587
23750 2532 2238
23751 8762 9817
23752 3988 1027
23753 3082 8403
23754 8863 2416
23755 1730 4677
23756 9929 5659
23757 2823 117 
23758 6147 9620
23759 2804 9193
23760 1208 5579
23761 6230 6457
23762 8715 5951
23763 7544 7418
23764 1586 5690
23765 1929 7211
23766 9188 4739
23767 6533 6646
23768 5740 6083
23769 3120 3761
23770 6547 338 
23771 9154 1683
23772 7869 4274
23773 7492 8211
23774 3291 9098
23775 7150 6863
23776 6098 316 
23777 2130 8095
23778 1069 9579
23779 8447 2429
23780 7500 2830
23781 403  2264
23782 3924 1325
23783 4655 9506
23784 3284 3444
23785 1987 6782
23786 6218 5851
23787 7146 9623
23788 3522 8463
23789 6080 6407
23790 3489 1618
23791 1133 8872
23792 89   2018
23793 9215 576 
23794 2697 2843
23795 9669 171 
23796 3224 4600
23797 4764 9670
23798 757  3033
23799 6224 8317
23800 3923 1688
23801 6708 8615
23802 3774 4382
23803 6354 4863
23804 8988 6938
23805 5739 4370
23806 4048 7000
23807 2099 8875
23808 601  8573
23809 3469 5549
23810 1159 9946
23811 4090 9789
23812 4039 7044
23813 5829 9755
23814 3489 2368
23815 9467 5877
23816 5878 5509
23817 5618 3070
23818 7975 3194
23819 1372 2941
23820 2540 2426
23821 8703 5956
23822 9143 3387
23823 3973 8616
23824 1653 5121
23825 5253 8717
23826 2926 2349
23827 4472 7619
23828 9807 1190
23829 2925 2642
23830 1063 842 
23831 8293 5921
23832 4196 1855
23833 9808 4696
23834 3517 5978
23835 3204 572 
23836 5494 589 
23837 3248 7876
23838 3954 5307
23839 4129 271 
23840 7342 8986
23841 5109 1094
23842 8775 299 
23843 7574 1176
23844 9179 2319
23845 321  5391
23846 8403 417 
23847 3614 6336
23848 2362 3840
23849 6913 6862
23850 4411 1456
23851 3139 9616
23852 6295 382 
23853 6540 9376
23854 6350 346 
23855 1194 6292
23856 7805 6246
23857 6970 1903
23858 8026 1108
23859 8943 6915
23860 1303 8820
23861 8952 1454
23862 989  2861
23863 1665 8519
23864 5062 4837
23865 4294 3699
23866 7282 3075
23867 7851 2632
23868 7308 9466
23869 7553 4718
23870 8804 5709
23871 133  8220
23872 7671 8921
23873 3261 9190
23874 2619 6446
23875 1398 1584
23876 5745 4984
23877 6966 7655
23878 1850 9220
23879 2447 5292
23880 5400 2045
23881 2965 1600
23882 7360 4761
23883 5539 2122
23884 1282 8654
23885 9065 4314
23886 5162 9829
23887 8017 2441
23888 8040 7265
23889 2770 6970
23890 1694 3153
23891 1185 5894
23892 4160 2346
23893 2191 2734
23894 1866 3714
23895 1027 120 
23896 9958 8142
23897 9157 1476
23898 1746 1196
23899 5232 489 
23900 66   6261
23901 1961 3671
23902 4409 3994
23903 4451 7007
23904 5992 5863
23905 4033 4628
23906 3220 8493
23907 3699 2281
23908 4435 2479
23909 3778 2467
23910 2328 7617
23911 532  6306
23912 8763 173 
23913 3192 4375
23914 1067 4920
23915 848  4722
23916 384  1473
23917 834  5990
23918 6598 1702
23919 9167 5409
23920 5515 8314
23921 5215 8309
23922 2102 3008
23923 9414 9587
23924 6396 3356
23925 4244 9693
23926 5364 1831
23927 4505 6414
23928 3181 6109
23929 2001 7065
23930 3784 8944
23931 5127 7817
23932 8254 5064
23933 1761 4197
23934 3527 522 
23935 2750 845 
23936 8271 8951
23937 3051 2198
23938 9452 4753
23939 8886 1310
23940 8949 4174
23941 2801 7484
23942 2790 8459
23943 8938 3925
23944 565  6534
23945 2946 6456
23946 990  377 
23947 6963 6332
23948 4409 2048
23949 2579 803 
23950 5089 6070
23951 6991 9972
23952 2755 7607
23953 1448 1931
23954 9158 223 
23955 1476 5850
23956 9166 7913
23957 8426 7621
23958 1901 7652
23959 375  6518
23960 879  359 
23961 4618 100 
23962 3499 350 
23963 4455 2561
23964 9025 8932
23965 429  1169
23966 8600 7235
23967 103  682 
23968 1535 1593
23969 4478 4562
23970 7642 2868
23971 5917 2996
23972 5186 1982
23973 5262 9990
23974 9999 7624
23975 8198 791 
23976 194  3044
23977 9508 5960
23978 110  5075
23979 6172 3562
23980 6847 1390
23981 7456 2931
23982 2098 5916
23983 9328 8175
23984 7750 2000
23985 7969 8660
23986 4003 6587
23987 4584 5064
23988 8160 8836
23989 8552 5316
23990 7519 4500
23991 5699 2225
23992 1276 5829
23993 7289 639 
23994 6693 5105
23995 2046 4444
23996 9288 6909
23997 2862 9230
23998 2321 2701
23999 6146 4359
24000 4646 4297
24001 7421 4627
24002 7500 2778
24003 9763 6430
24004 1839 1799
24005 4074 8864
24006 427  1226
24007 2917 5253
24008 906  3985
24009 6782 1289
24010 2275 148 
24011 8607 5146
24012 4928 4075
24013 6706 585 
24014 3926 6598
24015 5257 6235
24016 9219 4985
24017 48   9834
24018 7497 2511
24019 193  954 
24020 5892 9411
24021 3972 5181
24022 5612 6042
24023 9123 9982
24024 1986 8697
24025 5369 4098
24026 6972 7098
24027 8484 7178
24028 1933 3256
24029 2092 3097
24030 4450 9795
24031 5137 6902
24032 828  5728
24033 9215 2239
24034 8142 7108
24035 5281 27  
24036 3742 9224
24037 3373 9883
24038 8638 3769
24039 1481 1395
24040 3415 2674
24041 1806 9258
24042 5617 9193
24043 6281 5665
24044 3212 4780
24045 7349 7177
24046 9000 8798
24047 7413 7719
24048 9218 8314
24049 9403 9280
24050 6673 681 
24051 6583 9673
24052 5189 8405
24053 7353 596 
24054 5021 9827
24055 1666 1159
24056 4946 7941
24057 874  5453
24058 476  393 
24059 1258 6188
24060 5952 6700
24061 7467 1866
24062 9467 7310
24063 3409 190 
24064 7610 1506
24065 7701 6921
24066 9271 3142
24067 3446 5642
24068 5870 6935
24069 8342 2050
24070 4716 544 
24071 1418 6559
24072 1604 4298
24073 6696 4547
24074 1047 177 
24075 5601 7279
24076 1124 4567
24077 156  5594
24078 6882 5038
24079 9099 4896
24080 5378 611 
24081 5096 5362
24082 4204 7883
24083 9734 1073
24084 4525 1462
24085 4190 9193
24086 677  2567
24087 9801 3805
24088 2202 2277
24089 1356 7652
24090 1813 2898
24091 3648 5274
24092 7287 9963
24093 4687 3228
24094 1629 2146
24095 2686 1679
24096 4135 8207
24097 3911 2669
24098 6330 3750
24099 2478 990 
24100 2100 1848
24101 9486 1049
24102 6986 5388
24103 1698 3466
24104 4945 1157
24105 7682 4754
24106 5343 6874
24107 2402 4330
24108 1661 1562
24109 8501 5300
24110 7685 7167
24111 8456 9667
24112 9775 1300
24113 8866 9263
24114 7542 2929
24115 7257 2292
24116 3317 4539
24117 7177 8168
24118 3199 4460
24119 884  69  
24120 4135 2536
24121 8922 3122
24122 8076 1160
24123 4458 4081
24124 7465 8488
24125 8203 7938
24126 3774 9846
24127 527  7502
24128 8719 4271
24129 3561 972 
24130 5157 872 
24131 5167 2715
24132 8078 1852
24133 842  5483
24134 3053 2116
24135 2601 6723
24136 7063 7317
24137 6753 7238
24138 1728 9148
24139 5776 6641
24140 2267 2965
24141 8517 3078
24142 944  2046
24143 1748 8380
24144 3866 3692
24145 341  9620
24146 8743 9466
24147 648  2556
24148 8640 6210
24149 5129 96  
24150 5414 5319
24151 488  9420
24152 7220 5003
24153 2314 5914
24154 4822 1322
24155 6840 3230
24156 2541 2275
24157 1572 2607
24158 4464 1337
24159 3507 5771
24160 4643 9174
24161 1317 5233
24162 1406 6407
24163 4943 5360
24164 2063 2584
24165 5294 9456
24166 6405 1550
24167 52   3722
24168 2322 2461
24169 4150 2791
24170 9885 8709
24171 9882 5817
24172 8748 8613
24173 6309 8954
24174 1380 6326
24175 9766 4026
24176 9503 3360
24177 1657 951 
24178 5721 6410
24179 9618 4854
24180 8874 3646
24181 8508 1540
24182 3959 9527
24183 1810 2368
24184 7836 247 
24185 2709 3624
24186 4221 7851
24187 8173 3686
24188 6970 4139
24189 649  4913
24190 8519 3586
24191 7555 5014
24192 9638 9158
24193 3519 1648
24194 8286 3446
24195 1757 8107
24196 3266 4796
24197 659  3654
24198 8906 1222
24199 368  9788
24200 9287 4339
24201 7267 3410
24202 4516 7993
24203 1305 2420
24204 2690 100 
24205 657  1317
24206 7934 5210
24207 5267 8078
24208 7560 4424
24209 3840 3401
24210 3294 8185
24211 6646 2787
24212 4647 1556
24213 2654 623 
24214 6826 4593
24215 2727 7117
24216 4003 788 
24217 6750 1260
24218 4759 412 
24219 2029 2361
24220 3552 9976
24221 1424 7638
24222 6562 7621
24223 7791 7692
24224 6362 8948
24225 6307 5727
24226 1235 3926
24227 1807 7315
24228 3845 5253
24229 4064 5114
24230 6921 496 
24231 9730 3545
24232 9445 3100
24233 664  9573
24234 1305 1958
24235 777  9226
24236 6292 6021
24237 7584 8739
24238 1479 6786
24239 4422 6249
24240 8441 9247
24241 8938 2604
24242 9288 3935
24243 4123 9546
24244 3525 8854
24245 5917 730 
24246 2811 5050
24247 4183 2698
24248 7799 988 
24249 337  8382
24250 851  8516
24251 485  2733
24252 5068 56  
24253 9436 2537
24254 5280 9675
24255 1644 1495
24256 3125 8306
24257 993  6271
24258 64   1142
24259 6890 849 
24260 5914 5891
24261 8582 7427
24262 8336 4289
24263 9614 3541
24264 8870 6829
24265 9713 7214
24266 9897 616 
24267 2438 6122
24268 6016 8332
24269 2117 7028
24270 7560 1085
24271 3806 8912
24272 4712 3943
24273 3951 7689
24274 2092 5437
24275 5011 6771
24276 7026 7397
24277 140  1791
24278 8066 8931
24279 4560 9487
24280 5582 6249
24281 6410 8971
24282 2008 2129
24283 9559 7586
24284 3572 9353
24285 1274 2342
24286 7179 209 
24287 3699 3559
24288 6643 4133
24289 1803 3511
24290 7530 5755
24291 4535 8571
24292 9456 9107
24293 3258 5714
24294 8750 592 
24295 3224 101 
24296 8722 1937
24297 1064 9577
24298 9009 4726
24299 1169 7468
24300 4874 4790
24301 1401 3684
24302 7813 3697
24303 5585 8405
24304 8512 6824
24305 2194 249 
24306 1154 4609
24307 1673 2615
24308 1664 1418
24309 1051 1212
24310 6370 4849
24311 4088 6900
24312 6106 3118
24313 8069 4907
24314 7500 3588
24315 3952 8367
24316 1346 4410
24317 1493 6464
24318 301  6478
24319 2572 1415
24320 9754 2825
24321 2297 6106
24322 1208 9102
24323 2318 5903
24324 3411 1408
24325 9896 366 
24326 6904 9529
24327 8227 3058
24328 223  3712
24329 2777 5833
24330 3535 2329
24331 9894 5791
24332 9170 6600
24333 479  5472
24334 7730 1571
24335 980  8564
24336 9951 9755
24337 4431 6   
24338 7649 3465
24339 8292 6102
24340 9560 6284
24341 2281 902 
24342 3441 6302
24343 2220 9734
24344 1755 2321
24345 1242 7852
24346 3269 3346
24347 8840 6792
24348 9894 877 
24349 3738 2195
24350 5326 6666
24351 6602 8907
24352 1590 1115
24353 6284 6284
24354 3575 6359
24355 6705 1441
24356 1354 4795
24357 824  5538
24358 9525 6891
24359 175  6084
24360 4254 7271
24361 713  8110
24362 8230 3974
24363 7101 384 
24364 3700 1579
24365 2992 1522
24366 3333 8490
24367 4879 2302
24368 6738 8317
24369 8476 8897
24370 7287 3192
24371 2411 7143
24372 323  5625
24373 8891 5285
24374 8735 8766
24375 2258 4500
24376 8855 3326
24377 4066 4925
24378 5832 3083
24379 4877 6236
24380 4149 4068
24381 955  3307
24382 6447 2675
24383 6182 7759
24384 1367 1906
24385 7370 7045
24386 532  419 
24387 3210 1031
24388 6158 2925
24389 1893 7311
24390 5967 4489
24391 3468 502 
24392 3830 2626
24393 7820 6849
24394 7657 2769
24395 7809 2300
24396 4035 6407
24397 5436 3334
24398 6160 9740
24399 1856 1846
24400 9727 4584
24401 7151 503 
24402 4261 1291
24403 8758 4166
24404 9663 1849
24405 2014 9345
24406 8753 2787
24407 1195 7400
24408 9674 5304
24409 4918 68  
24410 4795 2527
24411 937  7013
24412 8338 7605
24413 4233 9043
24414 9463 2759
24415 5932 8622
24416 3559 5735
24417 8861 6359
24418 3151 4232
24419 4543 2370
24420 4561 4919
24421 4204 7933
24422 8703 423 
24423 6609 7575
24424 4540 7902
24425 6983 7327
24426 8367 9481
24427 7827 4469
24428 8693 6419
24429 3678 9132
24430 4548 7719
24431 4737 9861
24432 635  8485
24433 7422 2227
24434 9378 2565
24435 8339 7083
24436 5664 7445
24437 1294 324 
24438 1448 7368
24439 7219 5916
24440 5853 3177
24441 7336 5567
24442 9449 3295
24443 7063 6375
24444 2151 547 
24445 509  6365
24446 7092 1844
24447 9369 9305
24448 2241 1615
24449 6371 4936
24450 280  9134
24451 8561 8012
24452 8643 8816
24453 6011 767 
24454 4564 5284
24455 4125 9317
24456 8676 4256
24457 1563 230 
24458 2476 3256
24459 3144 3774
24460 6107 9802
24461 4312 4543
24462 6420 6467
24463 5431 8721
24464 3335 5063
24465 6292 9711
24466 3578 3302
24467 8991 491 
24468 2918 9571
24469 9343 9974
24470 4006 1943
24471 6517 912 
24472 5407 6745
24473 9008 3257
24474 7671 5869
24475 751  1562
24476 4667 6877
24477 2637 3063
24478 3655 729 
24479 1182 799 
24480 537  7606
24481 4053 2618
24482 5128 1162
24483 1211 8615
24484 720  207 
24485 2727 9635
24486 3239 4157
24487 9412 1825
24488 5306 6350
24489 9223 4687
24490 6754 3499
24491 755  8366
24492 5238 7470
24493 3789 6619
24494 5462 3666
24495 1094 9015
24496 5288 4004
24497 2521 5003
24498 3334 2332
24499 1097 3063
24500 9498 9855
24501 2705 4213
24502 8343 2933
24503 8981 554 
24504 5006 5361
24505 9377 8849
24506 3967 5272
24507 4894 1758
24508 4435 9056
24509 4616 4571
24510 2281 7257
24511 2225 8591
24512 6938 1458
24513 4084 9581
24514 822  621 
24515 9733 9227
24516 2003 4963
24517 3183 2642
24518 3635 1515
24519 7754 6674
24520 5538 9482
24521 9674 5045
24522 8201 9202
24523 1438 1273
24524 230  1601
24525 8277 1303
24526 6017 6376
24527 5160 7034
24528 4148 7278
24529 7271 3139
24530 336  3999
24531 1886 6165
24532 6720 8940
24533 8848 2369
24534 5900 9579
24535 5854 1145
24536 7195 2972
24537 7095 9683
24538 1420 8303
24539 8834 5491
24540 1118 3189
24541 694  9430
24542 9342 2734
24543 8095 5477
24544 1367 7925
24545 2620 2957
24546 5129 9170
24547 1720 4521
24548 9146 8853
24549 2651 1433
24550 9859 4540
24551 9769 4414
24552 1801 9374
24553 2161 4301
24554 4819 767 
24555 4173 9260
24556 4149 3983
24557 7608 7400
24558 3047 408 
24559 7930 259 
24560 4921 5071
24561 3801 5086
24562 2755 1298
24563 7237 8512
24564 3324 9151
24565 1866 9284
24566 3167 8467
24567 7202 341 
24568 4085 9634
24569 7545 3846
24570 3141 2299
24571 643  57  
24572 5739 5951
24573 4289 5774
24574 3027 4549
24575 4644 5136
24576 3160 7438
24577 4211 9273
24578 3295 700 
24579 7253 2996
24580 8678 553 
24581 1541 362 
24582 7098 5659
24583 7131 3628
24584 7338 9241
24585 3648 6727
24586 2641 9777
24587 8698 3809
24588 6008 2641
24589 8293 3559
24590 8066 993 
24591 244  294 
24592 9043 8566
24593 9024 8004
24594 1907 2317
24595 9856 947 
24596 5014 3162
24597 9092 7729
24598 9606 4543
24599 2962 7708
24600 2556 4187
24601 1125 5506
24602 1050 7598
24603 8703 9586
24604 8185 2130
24605 8148 6655
24606 883  2299
24607 2693 5134
24608 9212 8404
24609 963  5735
24610 1716 3826
24611 5289 9063
24612 7521 7459
24613 1527 4444
24614 9134 4434
24615 8551 7960
24616 6573 4657
24617 4281 1838
24618 7118 8640
24619 4401 2833
24620 627  5885
24621 4475 4921
24622 983  9410
24623 8650 885 
24624 3890 5662
24625 3060 5713
24626 3410 2132
24627 4042 3493
24628 9787 4827
24629 3557 8084
24630 4341 69  
24631 1990 6545
24632 7799 4453
24633 3000 1255
24634 566  3832
24635 1275 6670
24636 2983 472 
24637 5241 2319
24638 6412 4189
24639 1169 77  
24640 6912 8125
24641 4908 7842
24642 2862 1310
24643 9454 5907
24644 9496 4646
24645 5807 9056
24646 895  5086
24647 5641 2914
24648 6184 2134
24649 9517 3993
24650 7473 7009
24651 5327 7370
24652 6773 9951
24653 3652 1753
24654 2480 1509
24655 9484 9829
24656 843  3834
24657 9504 8197
24658 9184 6562
24659 1449 2798
24660 9941 2432
24661 4434 4559
24662 7451 3789
24663 2866 9618
24664 9623 1477
24665 8497 7142
24666 2983 7840
24667 5678 4991
24668 1343 2152
24669 7038 3604
24670 3669 6630
24671 7475 5089
24672 4421 5738
24673 2775 2440
24674 7666 6950
24675 4026 9873
24676 1868 7267
24677 4641 6124
24678 2473 4591
24679 634  3171
24680 476  642 
24681 4042 2741
24682 2487 9742
24683 5048 7351
24684 3292 8589
24685 6491 5148
24686 3417 2845
24687 749  6359
24688 4599 6262
24689 5752 901 
24690 3900 502 
24691 3718 9024
24692 3314 3143
24693 945  4034
24694 9691 9639
24695 823  7893
24696 9661 536 
24697 7413 562 
24698 294  6416
24699 6221 992 
24700 1147 7926
24701 7728 9628
24702 8838 7607
24703 8387 966 
24704 2811 3977
24705 6303 8448
24706 7239 1420
24707 5587 9882
24708 8109 3194
24709 2191 2010
24710 137  6029
24711 8967 1359
24712 5129 8697
24713 714  9640
24714 3202 3997
24715 5803 4554
24716 7303 4686
24717 710  4444
24718 8301 3044
24719 4212 6351
24720 1165 5701
24721 4265 914 
24722 8485 9981
24723 5800 3598
24724 8517 1895
24725 3540 9824
24726 4183 8218
24727 5488 1241
24728 5364 7525
24729 9943 8412
24730 3443 7501
24731 4959 8843
24732 6845 2755
24733 888  4534
24734 1103 8624
24735 6372 7659
24736 8138 4552
24737 3746 2758
24738 3976 5656
24739 968  3618
24740 9627 6491
24741 1492 5717
24742 8695 7572
24743 8138 6255
24744 2211 2800
24745 3734 9537
24746 5651 255 
24747 2052 4143
24748 3328 1453
24749 6345 4988
24750 9028 4195
24751 5985 458 
24752 379  4159
24753 2231 3303
24754 8000 7745
24755 5459 991 
24756 9927 5731
24757 5416 3458
24758 1699 2752
24759 7060 734 
24760 2121 9636
24761 492  1468
24762 2972 8627
24763 6107 4097
24764 7050 1639
24765 1556 2466
24766 6120 4856
24767 6109 9629
24768 6077 606 
24769 686  2034
24770 6869 29  
24771 7364 5965
24772 5998 9103
24773 1942 6141
24774 860  4908
24775 4871 1634
24776 9792 9975
24777 1272 1896
24778 8913 9034
24779 1147 1464
24780 7122 538 
24781 5643 7218
24782 595  958 
24783 8591 2879
24784 7777 3215
24785 5490 3499
24786 133  8772
24787 1095 6158
24788 3909 7975
24789 9300 8444
24790 7183 4104
24791 8420 7734
24792 4676 3926
24793 8620 279 
24794 9936 1105
24795 8204 6402
24796 9686 5698
24797 7367 6929
24798 2905 6402
24799 9020 1223
24800 9370 2278
24801 3718 6229
24802 3842 8458
24803 5033 1578
24804 8269 8039
24805 7205 8353
24806 9757 9369
24807 8813 7349
24808 985  4700
24809 8270 3399
24810 6898 2336
24811 7099 4231
24812 1713 9432
24813 4274 9448
24814 63   3846
24815 3021 162 
24816 5352 7596
24817 7819 2632
24818 7471 7008
24819 1379 5589
24820 6733 5224
24821 678  7418
24822 3533 6165
24823 1889 5241
24824 660  4760
24825 1208 3409
24826 8338 6981
24827 8767 6000
24828 564  3073
24829 5117 6617
24830 7851 6791
24831 3417 18  
24832 2681 3570
24833 9967 4740
24834 6768 3021
24835 6729 130 
24836 9531 3789
24837 9138 9840
24838 4943 999 
24839 2405 5653
24840 6679 5345
24841 7923 9066
24842 6165 9472
24843 8813 7654
24844 29   6728
24845 4074 6159
24846 957  25  
24847 9417 9811
24848 1704 1306
24849 5198 2588
24850 4964 1130
24851 1305 9892
24852 5572 1029
24853 7935 6127
24854 5396 6346
24855 2709 7985
24856 6112 4564
24857 3625 3222
24858 7944 6429
24859 3903 579 
24860 7257 9000
24861 4144 6552
24862 9648 3990
24863 1657 9339
24864 3528 6789
24865 9903 6235
24866 7914 6762
24867 5187 2539
24868 5262 1795
24869 3292 9298
24870 2335 8408
24871 4318 1220
24872 250  4527
24873 4166 1380
24874 686  2308
24875 8562 6126
24876 1178 6908
24877 7665 1876
24878 5590 2793
24879 5804 6954
24880 7791 9584
24881 9171 2228
24882 1583 1164
24883 106  4145
24884 2377 74  
24885 8352 1419
24886 1329 9453
24887 3676 6310
24888 872  79  
24889 1045 3075
24890 8501 9767
24891 7268 1867
24892 1837 7588
24893 3132 7055
24894 6702 3764
24895 3477 305 
24896 1242 7470
24897 4264 2465
24898 2841 5976
24899 8566 3824
24900 9430 5584
24901 3601 6658
24902 9800 2781
24903 696  6157
24904 2958 6158
24905 126  5374
24906 9499 6825
24907 7828 9980
24908 4098 8509
24909 6310 1682
24910 4035 311 
24911 9854 4073
24912 8907 3767
24913 4046 85  
24914 7119 3145
24915 7386 7820
24916 7995 8291
24917 2076 7358
24918 4139 2056
24919 4373 6366
24920 4696 9843
24921 4873 7515
24922 6507 203 
24923 2287 5986
24924 5524 2550
24925 2418 4846
24926 4868 3290
24927 1272 1869
24928 9883 1736
24929 2117 7991
24930 1109 6227
24931 1027 2767
24932 7980 5422
24933 6411 9663
24934 662  3674
24935 8570 4163
24936 8654 59  
24937 9880 1249
24938 2336 5992
24939 3514 8121
24940 5561 9834
24941 2488 4115
24942 2615 3563
24943 5525 4450
24944 3058 7428
24945 1688 5293
24946 927  5815
24947 8030 3839
24948 1690 3082
24949 6092 7933
24950 9427 9171
24951 3725 3171
24952 2623 8951
24953 7896 949 
24954 6005 4565
24955 4228 6291
24956 859  5004
24957 8418 8001
24958 5522 2536
24959 5554 7129
24960 6728 8704
24961 5611 316 
24962 6051 1963
24963 5615 7869
24964 3551 3513
24965 1394 9141
24966 7268 4276
24967 2330 6394
24968 6019 5675
24969 2695 9401
24970 7828 6022
24971 751  2674
24972 7977 5593
24973 3902 8710
24974 272  75  
24975 4489 1486
24976 73   9537
24977 5605 3885
24978 9226 4921
24979 9678 6040
24980 3495 8028
24981 80   1299
24982 82   193 
24983 1316 2272
24984 9334 5525
24985 2963 252 
24986 1021 5430
24987 9307 1415
24988 3100 1286
24989 3348 7949
24990 39   1390
24991 2120 3894
24992 7102 2071
24993 8393 8745
24994 369  8280
24995 1314 8312
24996 2101 562 
24997 6335 4297
24998 7679 4581
24999 504  8602
25000 2966 6533
25001 7557 6440
DEMAND_SECTION
1    0   
2    8   
3    2   
4    8   
5    8   
6    4   
7    4   
8    8   
9    7   
10   7   
11   5   
12   8   
13   8   
14   7   
15   2   
16   72  
17   85  
18   8   
19   8   
20   4   
21   6   
22   5   
23   1   
24   8   
25   7   
26   3   
27   2   
28   7   
29   9   
30   4   
31   8   
32   86  
33   6   
34   2   
35   7   
36   1   
37   10  
38   5   
39   4   
40   59  
41   8   
42   1   
43   10  
44   4   
45   3   
46   9   
47   2   
48   7   
49   10  
50   9   
51   9   
52   6   
53   5   
54   5   
55   7   
56   7   
57   2   
58   8   
59   4   
60   9   
61   8   
62   4   
63   7   
64   10  
65   7   
66   10  
67   8   
68   8   
69   8   
70   7   
71   8   
72   6   
73   8   
74   1   
75   1   
76   7   
77   8   
78   4   
79   5   
80   4   
81   9   
82   5   
83   8   
84   10  
85   2   
86   1   
87   7   
88   4   
89   2   
90   7   
91   4   
92   4   
93   55  
94   3   
95   8   
96   6   
97   6   
98   6   
99   5   
100  4   
101  59  
102  10  
103  8   
104  10  
105  5   
106  5   
107  8   
108  2   
109  6   
110  9   
111  9   
112  8   
113  9   
114  8   
115  1   
116  1   
117  1   
118  4   
119  4   
120  8   
121  6   
122  10  
123  5   
124  8   
125  10  
126  8   
127  8   
128  91  
129  8   
130  8   
131  6   
132  4   
133  5   
134  8   
135  87  
136  3   
137  59  
138  10  
139  2   
140  2   
141  8   
142  7   
143  1   
144  8   
145  7   
146  4   
147  8   
148  9   
149  7   
150  3   
151  9   
152  4   
153  1   
154  5   
155  6   
156  3   
157  1   
158  8   
159  2   
160  9   
161  6   
162  5   
163  10  
164  10  
165  3   
166  3   
167  9   
168  9   
169  10  
170  9   
171  1   
172  5   
173  2   
174  7   
175  1   
176  8   
177  2   
178  10  
179  9   
180  62  
181  1   
182  8   
183  10  
184  9   
185  10  
186  4   
187  6   
188  8   
189  3   
190  8   
191  4   
192  10  
193  6   
194  6   
195  9   
196  8   
197  3   
198  2   
199  7   
200  3   
201  7   
202  1   
203  9   
204  6   
205  2   
206  53  
207  9   
208  3   
209  4   
210  2   
211  10  
212  8   
213  1   
214  6   
215  7   
216  2   
217  10  
218  8   
219  8   
220  10  
221  1   
222  10  
223  5   
224  10  
225  3   
226  2   
227  10  
228  6   
229  9   
230  1   
231  8   
232  4   
233  4   
234  74  
235  2   
236  6   
237  2   
238  4   
239  2   
240  8   
241  4   
242  7   
243  8   
244  7   
245  7   
246  5   
247  9   
248  7   
249  6   
250  3   
251  8   
252  10  
253  3   
254  1   
255  88  
256  1   
257  7   
258  6   
259  8   
260  2   
261  10  
262  3   
263  8   
264  2   
265  91  
266  6   
267  4   
268  4   
269  10  
270  2   
271  10  
272  10  
273  9   
274  5   
275  10  
276  2   
277  2   
278  7   
279  5   
280  8   
281  2   
282  5   
283  3   
284  58  
285  3   
286  2   
287  9   
288  5   
289  1   
290  1   
291  6   
292  3   
293  4   
294  7   
295  1   
296  1   
297  10  
298  10  
299  1   
300  1   
301  5   
302  4   
303  70  
304  2   
305  1   
306  6   
307  8   
308  96  
309  60  
310  3   
311  4   
312  9   
313  1   
314  7   
315  10  
316  10  
317  8   
318  8   
319  10  
320  8   
321  5   
322  10  
323  9   
324  10  
325  1   
326  5   
327  2   
328  2   
329  9   
330  10  
331  4   
332  5   
333  6   
334  10  
335  3   
336  8   
337  6   
338  3   
339  1   
340  6   
341  7   
342  9   
343  3   
344  4   
345  4   
346  6   
347  9   
348  6   
349  4   
350  1   
351  1   
352  5   
353  8   
354  4   
355  6   
356  4   
357  2   
358  7   
359  8   
360  4   
361  3   
362  4   
363  8   
364  6   
365  7   
366  4   
367  1   
368  6   
369  2   
370  1   
371  3   
372  5   
373  2   
374  9   
375  5   
376  9   
377  5   
378  5   
379  4   
380  10  
381  2   
382  1   
383  4   
384  1   
385  6   
386  5   
387  6   
388  55  
389  7   
390  2   
391  4   
392  3   
393  9   
394  9   
395  6   
396  54  
397  4   
398  9   
399  1   
400  10  
401  8   
402  3   
403  1   
404  4   
405  4   
406  100 
407  8   
408  7   
409  75  
410  97  
411  4   
412  5   
413  86  
414  10  
415  5   
416  10  
417  6   
418  4   
419  5   
420  8   
421  10  
422  8   
423  2   
424  5   
425  2   
426  3   
427  9   
428  6   
429  4   
430  9   
431  1   
432  7   
433  4   
434  2   
435  3   
436  10  
437  9   
438  10  
439  9   
440  8   
441  9   
442  4   
443  4   
444  3   
445  51  
446  4   
447  8   
448  7   
449  3   
450  2   
451  9   
452  1   
453  3   
454  6   
455  7   
456  4   
457  5   
458  92  
459  1   
460  8   
461  10  
462  5   
463  4   
464  5   
465  9   
466  4   
467  10  
468  7   
469  5   
470  4   
471  8   
472  8   
473  4   
474  7   
475  9   
476  1   
477  1   
478  4   
479  8   
480  4   
481  2   
482  6   
483  7   
484  3   
485  9   
486  5   
487  6   
488  3   
489  9   
490  5   
491  8   
492  10  
493  8   
494  5   
495  9   
496  9   
497  2   
498  4   
499  3   
500  4   
501  67  
502  2   
503  10  
504  63  
505  1   
506  7   
507  4   
508  8   
509  7   
510  9   
511  9   
512  8   
513  9   
514  2   
515  5   
516  1   
517  1   
518  4   
519  6   
520  6   
521  6   
522  5   
523  93  
524  10  
525  7   
526  1   
527  1   
528  1   
529  10  
530  4   
531  8   
532  8   
533  8   
534  10  
535  97  
536  1   
537  10  
538  1   
539  7   
540  4   
541  1   
542  59  
543  7   
544  7   
545  5   
546  9   
547  10  
548  4   
549  8   
550  4   
551  9   
552  1   
553  10  
554  4   
555  4   
556  74  
557  6   
558  4   
559  6   
560  2   
561  4   
562  9   
563  3   
564  10  
565  83  
566  10  
567  10  
568  6   
569  2   
570  6   
571  51  
572  4   
573  7   
574  2   
575  10  
576  2   
577  8   
578  10  
579  1   
580  2   
581  9   
582  10  
583  7   
584  6   
585  1   
586  4   
587  10  
588  7   
589  1   
590  3   
591  3   
592  7   
593  5   
594  4   
595  6   
596  5   
597  3   
598  1   
599  2   
600  3   
601  7   
602  4   
603  8   
604  4   
605  9   
606  6   
607  54  
608  9   
609  96  
610  4   
611  7   
612  4   
613  1   
614  9   
615  7   
616  1   
617  7   
618  3   
619  2   
620  5   
621  4   
622  3   
623  7   
624  9   
625  2   
626  4   
627  5   
628  3   
629  10  
630  5   
631  8   
632  7   
633  4   
634  5   
635  77  
636  4   
637  10  
638  6   
639  4   
640  5   
641  7   
642  2   
643  7   
644  8   
645  6   
646  5   
647  7   
648  75  
649  3   
650  8   
651  8   
652  7   
653  3   
654  10  
655  2   
656  10  
657  9   
658  2   
659  2   
660  10  
661  4   
662  2   
663  5   
664  7   
665  10  
666  61  
667  3   
668  10  
669  3   
670  5   
671  6   
672  87  
673  8   
674  10  
675  7   
676  5   
677  9   
678  8   
679  4   
680  93  
681  2   
682  5   
683  77  
684  3   
685  5   
686  7   
687  8   
688  6   
689  4   
690  1   
691  9   
692  2   
693  7   
694  8   
695  7   
696  5   
697  7   
698  9   
699  3   
700  4   
701  8   
702  9   
703  2   
704  5   
705  8   
706  9   
707  5   
708  7   
709  4   
710  7   
711  7   
712  3   
713  6   
714  8   
715  5   
716  6   
717  7   
718  2   
719  8   
720  2   
721  6   
722  2   
723  3   
724  2   
725  5   
726  51  
727  6   
728  8   
729  10  
730  9   
731  10  
732  63  
733  8   
734  1   
735  9   
736  5   
737  4   
738  8   
739  8   
740  93  
741  4   
742  4   
743  8   
744  4   
745  7   
746  8   
747  3   
748  1   
749  5   
750  2   
751  1   
752  5   
753  7   
754  10  
755  7   
756  5   
757  2   
758  5   
759  5   
760  8   
761  1   
762  3   
763  3   
764  3   
765  1   
766  1   
767  2   
768  3   
769  10  
770  10  
771  9   
772  4   
773  10  
774  6   
775  5   
776  1   
777  5   
778  1   
779  5   
780  5   
781  6   
782  7   
783  1   
784  3   
785  2   
786  85  
787  10  
788  8   
789  8   
790  2   
791  2   
792  8   
793  10  
794  67  
795  2   
796  80  
797  9   
798  2   
799  8   
800  9   
801  7   
802  9   
803  6   
804  76  
805  7   
806  6   
807  9   
808  9   
809  7   
810  7   
811  9   
812  5   
813  5   
814  8   
815  6   
816  6   
817  10  
818  10  
819  1   
820  4   
821  10  
822  4   
823  2   
824  4   
825  8   
826  9   
827  9   
828  3   
829  8   
830  1   
831  1   
832  8   
833  6   
834  6   
835  5   
836  4   
837  3   
838  1   
839  5   
840  6   
841  2   
842  1   
843  9   
844  96  
845  66  
846  93  
847  8   
848  6   
849  1   
850  8   
851  1   
852  10  
853  3   
854  9   
855  3   
856  4   
857  9   
858  9   
859  8   
860  5   
861  7   
862  6   
863  7   
864  1   
865  9   
866  3   
867  8   
868  1   
869  5   
870  7   
871  9   
872  3   
873  2   
874  10  
875  7   
876  4   
877  7   
878  10  
879  6   
880  10  
881  10  
882  7   
883  8   
884  4   
885  10  
886  10  
887  6   
888  3   
889  3   
890  1   
891  4   
892  4   
893  4   
894  85  
895  6   
896  7   
897  10  
898  5   
899  1   
900  4   
901  10  
902  9   
903  6   
904  88  
905  4   
906  5   
907  4   
908  5   
909  8   
910  3   
911  7   
912  4   
913  5   
914  3   
915  6   
916  1   
917  9   
918  2   
919  10  
920  5   
921  1   
922  1   
923  3   
924  79  
925  7   
926  9   
927  9   
928  4   
929  9   
930  4   
931  7   
932  6   
933  8   
934  6   
935  3   
936  5   
937  9   
938  7   
939  4   
940  2   
941  9   
942  6   
943  72  
944  7   
945  7   
946  4   
947  8   
948  10  
949  7   
950  2   
951  10  
952  5   
953  5   
954  7   
955  5   
956  9   
957  3   
958  1   
959  8   
960  4   
961  1   
962  4   
963  4   
964  4   
965  10  
966  6   
967  8   
968  74  
969  72  
970  4   
971  1   
972  2   
973  4   
974  6   
975  3   
976  6   
977  7   
978  10  
979  2   
980  3   
981  2   
982  68  
983  4   
984  2   
985  10  
986  10  
987  9   
988  1   
989  6   
990  9   
991  6   
992  6   
993  10  
994  7   
995  9   
996  8   
997  2   
998  2   
999  5   
1000 4   
1001 2   
1002 1   
1003 5   
1004 2   
1005 6   
1006 3   
1007 2   
1008 6   
1009 5   
1010 2   
1011 5   
1012 9   
1013 10  
1014 8   
1015 3   
1016 7   
1017 10  
1018 8   
1019 6   
1020 5   
1021 3   
1022 9   
1023 8   
1024 9   
1025 5   
1026 2   
1027 2   
1028 7   
1029 3   
1030 6   
1031 3   
1032 1   
1033 10  
1034 86  
1035 54  
1036 3   
1037 3   
1038 2   
1039 6   
1040 6   
1041 5   
1042 4   
1043 5   
1044 3   
1045 2   
1046 1   
1047 7   
1048 8   
1049 8   
1050 7   
1051 9   
1052 4   
1053 8   
1054 10  
1055 4   
1056 9   
1057 5   
1058 3   
1059 4   
1060 1   
1061 6   
1062 9   
1063 4   
1064 9   
1065 9   
1066 1   
1067 3   
1068 6   
1069 8   
1070 4   
1071 1   
1072 6   
1073 10  
1074 3   
1075 1   
1076 9   
1077 10  
1078 4   
1079 3   
1080 5   
1081 2   
1082 4   
1083 8   
1084 94  
1085 10  
1086 3   
1087 8   
1088 9   
1089 6   
1090 3   
1091 10  
1092 6   
1093 1   
1094 10  
1095 7   
1096 10  
1097 3   
1098 7   
1099 1   
1100 4   
1101 2   
1102 9   
1103 2   
1104 10  
1105 8   
1106 9   
1107 8   
1108 4   
1109 1   
1110 1   
1111 5   
1112 6   
1113 1   
1114 2   
1115 6   
1116 10  
1117 93  
1118 3   
1119 7   
1120 3   
1121 5   
1122 7   
1123 3   
1124 4   
1125 9   
1126 90  
1127 7   
1128 3   
1129 9   
1130 8   
1131 4   
1132 2   
1133 3   
1134 4   
1135 5   
1136 8   
1137 88  
1138 2   
1139 6   
1140 9   
1141 8   
1142 4   
1143 7   
1144 10  
1145 85  
1146 5   
1147 3   
1148 87  
1149 3   
1150 7   
1151 9   
1152 4   
1153 5   
1154 10  
1155 2   
1156 5   
1157 10  
1158 1   
1159 4   
1160 5   
1161 7   
1162 1   
1163 4   
1164 65  
1165 10  
1166 10  
1167 6   
1168 7   
1169 5   
1170 6   
1171 7   
1172 4   
1173 7   
1174 77  
1175 10  
1176 9   
1177 7   
1178 9   
1179 5   
1180 4   
1181 5   
1182 89  
1183 6   
1184 69  
1185 5   
1186 9   
1187 6   
1188 7   
1189 10  
1190 5   
1191 9   
1192 5   
1193 8   
1194 7   
1195 6   
1196 5   
1197 9   
1198 2   
1199 10  
1200 5   
1201 8   
1202 5   
1203 2   
1204 4   
1205 1   
1206 9   
1207 10  
1208 9   
1209 6   
1210 6   
1211 10  
1212 10  
1213 9   
1214 1   
1215 3   
1216 9   
1217 10  
1218 5   
1219 3   
1220 3   
1221 8   
1222 5   
1223 8   
1224 10  
1225 8   
1226 10  
1227 6   
1228 4   
1229 6   
1230 7   
1231 3   
1232 3   
1233 1   
1234 6   
1235 5   
1236 5   
1237 6   
1238 1   
1239 1   
1240 5   
1241 9   
1242 7   
1243 9   
1244 2   
1245 1   
1246 1   
1247 9   
1248 1   
1249 5   
1250 10  
1251 10  
1252 3   
1253 55  
1254 53  
1255 3   
1256 2   
1257 7   
1258 3   
1259 10  
1260 8   
1261 6   
1262 2   
1263 1   
1264 2   
1265 7   
1266 8   
1267 7   
1268 7   
1269 96  
1270 86  
1271 4   
1272 4   
1273 71  
1274 3   
1275 8   
1276 7   
1277 7   
1278 74  
1279 3   
1280 2   
1281 7   
1282 59  
1283 2   
1284 5   
1285 6   
1286 3   
1287 7   
1288 9   
1289 4   
1290 3   
1291 3   
1292 8   
1293 86  
1294 8   
1295 2   
1296 10  
1297 2   
1298 5   
1299 10  
1300 3   
1301 6   
1302 10  
1303 6   
1304 4   
1305 5   
1306 76  
1307 9   
1308 10  
1309 6   
1310 2   
1311 84  
1312 4   
1313 9   
1314 8   
1315 10  
1316 7   
1317 10  
1318 3   
1319 10  
1320 10  
1321 8   
1322 8   
1323 7   
1324 9   
1325 4   
1326 66  
1327 1   
1328 6   
1329 2   
1330 2   
1331 3   
1332 8   
1333 2   
1334 79  
1335 9   
1336 2   
1337 9   
1338 3   
1339 1   
1340 6   
1341 7   
1342 9   
1343 1   
1344 3   
1345 5   
1346 7   
1347 2   
1348 10  
1349 9   
1350 10  
1351 3   
1352 7   
1353 8   
1354 7   
1355 6   
1356 7   
1357 6   
1358 9   
1359 10  
1360 75  
1361 10  
1362 1   
1363 3   
1364 3   
1365 1   
1366 1   
1367 1   
1368 59  
1369 3   
1370 5   
1371 7   
1372 1   
1373 9   
1374 6   
1375 6   
1376 2   
1377 8   
1378 4   
1379 5   
1380 9   
1381 7   
1382 8   
1383 9   
1384 7   
1385 2   
1386 6   
1387 9   
1388 4   
1389 7   
1390 3   
1391 6   
1392 4   
1393 3   
1394 3   
1395 10  
1396 3   
1397 10  
1398 5   
1399 1   
1400 4   
1401 4   
1402 10  
1403 9   
1404 4   
1405 1   
1406 1   
1407 10  
1408 5   
1409 5   
1410 1   
1411 8   
1412 5   
1413 5   
1414 2   
1415 96  
1416 3   
1417 3   
1418 8   
1419 10  
1420 10  
1421 6   
1422 1   
1423 2   
1424 4   
1425 6   
1426 7   
1427 8   
1428 2   
1429 67  
1430 3   
1431 6   
1432 9   
1433 7   
1434 1   
1435 6   
1436 1   
1437 4   
1438 4   
1439 4   
1440 9   
1441 60  
1442 8   
1443 5   
1444 8   
1445 8   
1446 8   
1447 100 
1448 4   
1449 8   
1450 5   
1451 3   
1452 3   
1453 5   
1454 5   
1455 7   
1456 51  
1457 61  
1458 1   
1459 9   
1460 10  
1461 7   
1462 7   
1463 5   
1464 9   
1465 3   
1466 9   
1467 7   
1468 9   
1469 1   
1470 5   
1471 9   
1472 9   
1473 6   
1474 8   
1475 3   
1476 7   
1477 1   
1478 5   
1479 9   
1480 5   
1481 6   
1482 4   
1483 5   
1484 4   
1485 6   
1486 9   
1487 1   
1488 6   
1489 4   
1490 1   
1491 7   
1492 5   
1493 9   
1494 10  
1495 3   
1496 10  
1497 10  
1498 1   
1499 9   
1500 10  
1501 10  
1502 3   
1503 1   
1504 10  
1505 2   
1506 2   
1507 3   
1508 9   
1509 8   
1510 1   
1511 2   
1512 4   
1513 6   
1514 6   
1515 10  
1516 8   
1517 2   
1518 2   
1519 1   
1520 10  
1521 3   
1522 3   
1523 5   
1524 76  
1525 4   
1526 4   
1527 8   
1528 1   
1529 2   
1530 8   
1531 4   
1532 10  
1533 6   
1534 6   
1535 8   
1536 4   
1537 3   
1538 8   
1539 9   
1540 8   
1541 3   
1542 7   
1543 1   
1544 1   
1545 1   
1546 3   
1547 1   
1548 57  
1549 5   
1550 10  
1551 7   
1552 10  
1553 97  
1554 2   
1555 9   
1556 5   
1557 10  
1558 10  
1559 2   
1560 6   
1561 1   
1562 1   
1563 6   
1564 7   
1565 1   
1566 1   
1567 6   
1568 60  
1569 5   
1570 4   
1571 9   
1572 7   
1573 4   
1574 9   
1575 72  
1576 2   
1577 7   
1578 73  
1579 6   
1580 6   
1581 1   
1582 4   
1583 2   
1584 5   
1585 1   
1586 8   
1587 10  
1588 7   
1589 4   
1590 9   
1591 3   
1592 3   
1593 9   
1594 8   
1595 2   
1596 75  
1597 9   
1598 6   
1599 3   
1600 1   
1601 3   
1602 9   
1603 10  
1604 8   
1605 5   
1606 5   
1607 2   
1608 7   
1609 2   
1610 5   
1611 9   
1612 4   
1613 10  
1614 3   
1615 4   
1616 6   
1617 89  
1618 1   
1619 59  
1620 4   
1621 1   
1622 5   
1623 2   
1624 3   
1625 82  
1626 7   
1627 1   
1628 1   
1629 10  
1630 6   
1631 9   
1632 3   
1633 1   
1634 4   
1635 7   
1636 8   
1637 3   
1638 7   
1639 7   
1640 4   
1641 3   
1642 9   
1643 2   
1644 3   
1645 9   
1646 10  
1647 8   
1648 7   
1649 4   
1650 3   
1651 4   
1652 52  
1653 7   
1654 6   
1655 1   
1656 7   
1657 5   
1658 5   
1659 4   
1660 5   
1661 8   
1662 2   
1663 7   
1664 3   
1665 4   
1666 7   
1667 6   
1668 5   
1669 6   
1670 4   
1671 5   
1672 90  
1673 3   
1674 7   
1675 10  
1676 8   
1677 8   
1678 10  
1679 3   
1680 1   
1681 6   
1682 6   
1683 5   
1684 5   
1685 4   
1686 1   
1687 10  
1688 8   
1689 9   
1690 2   
1691 8   
1692 9   
1693 5   
1694 5   
1695 1   
1696 7   
1697 4   
1698 4   
1699 8   
1700 7   
1701 97  
1702 8   
1703 10  
1704 4   
1705 5   
1706 4   
1707 6   
1708 1   
1709 1   
1710 2   
1711 4   
1712 2   
1713 7   
1714 5   
1715 4   
1716 8   
1717 4   
1718 2   
1719 6   
1720 5   
1721 8   
1722 5   
1723 3   
1724 7   
1725 6   
1726 3   
1727 8   
1728 4   
1729 9   
1730 3   
1731 1   
1732 10  
1733 1   
1734 2   
1735 2   
1736 6   
1737 3   
1738 1   
1739 3   
1740 4   
1741 6   
1742 5   
1743 6   
1744 4   
1745 8   
1746 8   
1747 5   
1748 1   
1749 5   
1750 4   
1751 2   
1752 4   
1753 8   
1754 10  
1755 9   
1756 5   
1757 6   
1758 7   
1759 1   
1760 2   
1761 2   
1762 5   
1763 3   
1764 3   
1765 10  
1766 8   
1767 9   
1768 1   
1769 10  
1770 10  
1771 3   
1772 9   
1773 1   
1774 5   
1775 9   
1776 3   
1777 1   
1778 9   
1779 5   
1780 2   
1781 61  
1782 10  
1783 5   
1784 10  
1785 3   
1786 3   
1787 5   
1788 3   
1789 2   
1790 10  
1791 10  
1792 4   
1793 9   
1794 8   
1795 4   
1796 6   
1797 5   
1798 8   
1799 5   
1800 7   
1801 3   
1802 3   
1803 9   
1804 10  
1805 5   
1806 4   
1807 7   
1808 7   
1809 3   
1810 2   
1811 5   
1812 8   
1813 9   
1814 5   
1815 2   
1816 2   
1817 4   
1818 4   
1819 6   
1820 6   
1821 1   
1822 4   
1823 8   
1824 2   
1825 8   
1826 10  
1827 4   
1828 3   
1829 4   
1830 6   
1831 3   
1832 8   
1833 10  
1834 6   
1835 6   
1836 5   
1837 4   
1838 4   
1839 6   
1840 2   
1841 3   
1842 10  
1843 8   
1844 3   
1845 68  
1846 4   
1847 10  
1848 2   
1849 10  
1850 3   
1851 10  
1852 6   
1853 1   
1854 8   
1855 2   
1856 6   
1857 7   
1858 2   
1859 6   
1860 9   
1861 3   
1862 9   
1863 6   
1864 4   
1865 9   
1866 6   
1867 5   
1868 1   
1869 2   
1870 7   
1871 6   
1872 1   
1873 9   
1874 3   
1875 7   
1876 4   
1877 1   
1878 1   
1879 4   
1880 9   
1881 77  
1882 10  
1883 8   
1884 9   
1885 9   
1886 5   
1887 6   
1888 69  
1889 7   
1890 1   
1891 6   
1892 1   
1893 2   
1894 6   
1895 8   
1896 1   
1897 2   
1898 6   
1899 1   
1900 3   
1901 6   
1902 5   
1903 77  
1904 4   
1905 5   
1906 10  
1907 5   
1908 1   
1909 5   
1910 6   
1911 5   
1912 7   
1913 7   
1914 1   
1915 4   
1916 5   
1917 7   
1918 2   
1919 6   
1920 10  
1921 5   
1922 10  
1923 9   
1924 6   
1925 3   
1926 2   
1927 2   
1928 3   
1929 5   
1930 9   
1931 6   
1932 2   
1933 8   
1934 1   
1935 1   
1936 51  
1937 4   
1938 5   
1939 8   
1940 6   
1941 6   
1942 6   
1943 3   
1944 9   
1945 73  
1946 2   
1947 3   
1948 1   
1949 79  
1950 9   
1951 10  
1952 8   
1953 8   
1954 10  
1955 8   
1956 10  
1957 7   
1958 3   
1959 81  
1960 2   
1961 8   
1962 2   
1963 4   
1964 6   
1965 2   
1966 6   
1967 7   
1968 1   
1969 9   
1970 5   
1971 2   
1972 9   
1973 7   
1974 9   
1975 8   
1976 7   
1977 5   
1978 5   
1979 3   
1980 4   
1981 4   
1982 6   
1983 5   
1984 7   
1985 10  
1986 3   
1987 1   
1988 8   
1989 2   
1990 10  
1991 10  
1992 10  
1993 9   
1994 10  
1995 9   
1996 1   
1997 7   
1998 10  
1999 6   
2000 8   
2001 9   
2002 10  
2003 3   
2004 1   
2005 9   
2006 9   
2007 1   
2008 2   
2009 7   
2010 8   
2011 7   
2012 3   
2013 8   
2014 6   
2015 7   
2016 5   
2017 7   
2018 8   
2019 9   
2020 8   
2021 4   
2022 6   
2023 2   
2024 7   
2025 4   
2026 8   
2027 10  
2028 9   
2029 1   
2030 3   
2031 4   
2032 3   
2033 4   
2034 6   
2035 5   
2036 8   
2037 7   
2038 9   
2039 70  
2040 8   
2041 8   
2042 1   
2043 3   
2044 9   
2045 5   
2046 4   
2047 5   
2048 8   
2049 3   
2050 3   
2051 10  
2052 7   
2053 7   
2054 5   
2055 3   
2056 5   
2057 6   
2058 7   
2059 8   
2060 7   
2061 3   
2062 3   
2063 8   
2064 84  
2065 1   
2066 9   
2067 7   
2068 3   
2069 94  
2070 6   
2071 1   
2072 7   
2073 6   
2074 7   
2075 7   
2076 4   
2077 6   
2078 9   
2079 5   
2080 10  
2081 3   
2082 7   
2083 4   
2084 2   
2085 9   
2086 5   
2087 9   
2088 8   
2089 5   
2090 8   
2091 3   
2092 8   
2093 5   
2094 6   
2095 8   
2096 9   
2097 6   
2098 5   
2099 8   
2100 4   
2101 5   
2102 10  
2103 6   
2104 8   
2105 9   
2106 2   
2107 9   
2108 10  
2109 2   
2110 9   
2111 6   
2112 10  
2113 90  
2114 10  
2115 8   
2116 5   
2117 8   
2118 10  
2119 8   
2120 2   
2121 8   
2122 3   
2123 6   
2124 3   
2125 93  
2126 10  
2127 6   
2128 2   
2129 9   
2130 3   
2131 8   
2132 2   
2133 4   
2134 9   
2135 6   
2136 9   
2137 5   
2138 6   
2139 4   
2140 2   
2141 10  
2142 8   
2143 9   
2144 5   
2145 2   
2146 10  
2147 9   
2148 5   
2149 10  
2150 3   
2151 6   
2152 10  
2153 4   
2154 1   
2155 81  
2156 8   
2157 93  
2158 1   
2159 8   
2160 5   
2161 1   
2162 1   
2163 3   
2164 9   
2165 8   
2166 73  
2167 7   
2168 8   
2169 9   
2170 9   
2171 8   
2172 3   
2173 4   
2174 90  
2175 8   
2176 5   
2177 6   
2178 3   
2179 9   
2180 8   
2181 5   
2182 10  
2183 69  
2184 10  
2185 5   
2186 10  
2187 9   
2188 5   
2189 1   
2190 1   
2191 3   
2192 6   
2193 1   
2194 5   
2195 9   
2196 10  
2197 4   
2198 10  
2199 3   
2200 8   
2201 10  
2202 6   
2203 4   
2204 2   
2205 7   
2206 10  
2207 4   
2208 5   
2209 2   
2210 5   
2211 4   
2212 4   
2213 10  
2214 10  
2215 9   
2216 7   
2217 8   
2218 2   
2219 3   
2220 6   
2221 8   
2222 7   
2223 3   
2224 1   
2225 6   
2226 6   
2227 2   
2228 2   
2229 4   
2230 5   
2231 5   
2232 4   
2233 8   
2234 7   
2235 7   
2236 9   
2237 10  
2238 3   
2239 10  
2240 9   
2241 9   
2242 6   
2243 6   
2244 8   
2245 1   
2246 3   
2247 97  
2248 9   
2249 1   
2250 1   
2251 7   
2252 4   
2253 65  
2254 9   
2255 1   
2256 5   
2257 10  
2258 2   
2259 7   
2260 6   
2261 8   
2262 8   
2263 3   
2264 2   
2265 78  
2266 9   
2267 4   
2268 5   
2269 3   
2270 71  
2271 74  
2272 6   
2273 55  
2274 6   
2275 3   
2276 6   
2277 8   
2278 7   
2279 8   
2280 6   
2281 2   
2282 3   
2283 10  
2284 5   
2285 3   
2286 7   
2287 2   
2288 1   
2289 9   
2290 4   
2291 9   
2292 9   
2293 4   
2294 2   
2295 4   
2296 2   
2297 1   
2298 5   
2299 8   
2300 2   
2301 1   
2302 10  
2303 65  
2304 2   
2305 2   
2306 74  
2307 10  
2308 7   
2309 70  
2310 5   
2311 5   
2312 8   
2313 10  
2314 9   
2315 5   
2316 8   
2317 92  
2318 6   
2319 5   
2320 9   
2321 6   
2322 7   
2323 7   
2324 6   
2325 7   
2326 9   
2327 3   
2328 85  
2329 9   
2330 4   
2331 2   
2332 9   
2333 1   
2334 1   
2335 2   
2336 9   
2337 6   
2338 7   
2339 4   
2340 8   
2341 7   
2342 4   
2343 2   
2344 8   
2345 1   
2346 5   
2347 8   
2348 9   
2349 7   
2350 10  
2351 6   
2352 9   
2353 2   
2354 5   
2355 8   
2356 1   
2357 9   
2358 7   
2359 9   
2360 7   
2361 4   
2362 8   
2363 1   
2364 7   
2365 1   
2366 4   
2367 7   
2368 8   
2369 4   
2370 6   
2371 10  
2372 1   
2373 8   
2374 8   
2375 2   
2376 7   
2377 93  
2378 8   
2379 8   
2380 7   
2381 67  
2382 5   
2383 9   
2384 3   
2385 7   
2386 6   
2387 4   
2388 8   
2389 9   
2390 4   
2391 1   
2392 5   
2393 9   
2394 4   
2395 7   
2396 10  
2397 10  
2398 3   
2399 10  
2400 1   
2401 5   
2402 2   
2403 8   
2404 10  
2405 7   
2406 2   
2407 4   
2408 3   
2409 7   
2410 10  
2411 3   
2412 6   
2413 6   
2414 10  
2415 85  
2416 5   
2417 4   
2418 3   
2419 10  
2420 1   
2421 9   
2422 72  
2423 9   
2424 10  
2425 9   
2426 1   
2427 79  
2428 6   
2429 99  
2430 4   
2431 7   
2432 10  
2433 75  
2434 5   
2435 5   
2436 4   
2437 8   
2438 6   
2439 2   
2440 9   
2441 1   
2442 8   
2443 2   
2444 2   
2445 93  
2446 1   
2447 75  
2448 6   
2449 3   
2450 7   
2451 10  
2452 8   
2453 1   
2454 8   
2455 3   
2456 9   
2457 3   
2458 58  
2459 6   
2460 2   
2461 1   
2462 9   
2463 1   
2464 9   
2465 10  
2466 3   
2467 1   
2468 9   
2469 6   
2470 3   
2471 5   
2472 3   
2473 3   
2474 6   
2475 3   
2476 83  
2477 2   
2478 10  
2479 4   
2480 1   
2481 10  
2482 9   
2483 9   
2484 9   
2485 2   
2486 10  
2487 7   
2488 4   
2489 9   
2490 7   
2491 8   
2492 5   
2493 2   
2494 3   
2495 6   
2496 9   
2497 6   
2498 3   
2499 10  
2500 9   
2501 2   
2502 4   
2503 7   
2504 6   
2505 10  
2506 4   
2507 8   
2508 9   
2509 3   
2510 6   
2511 6   
2512 10  
2513 1   
2514 3   
2515 5   
2516 6   
2517 5   
2518 8   
2519 3   
2520 7   
2521 4   
2522 8   
2523 3   
2524 4   
2525 6   
2526 1   
2527 2   
2528 75  
2529 2   
2530 8   
2531 5   
2532 4   
2533 5   
2534 2   
2535 1   
2536 3   
2537 6   
2538 5   
2539 5   
2540 2   
2541 4   
2542 7   
2543 1   
2544 1   
2545 2   
2546 94  
2547 2   
2548 8   
2549 5   
2550 6   
2551 9   
2552 6   
2553 1   
2554 3   
2555 3   
2556 4   
2557 3   
2558 94  
2559 8   
2560 3   
2561 7   
2562 8   
2563 5   
2564 9   
2565 10  
2566 3   
2567 10  
2568 3   
2569 70  
2570 8   
2571 9   
2572 5   
2573 4   
2574 10  
2575 1   
2576 5   
2577 4   
2578 10  
2579 7   
2580 7   
2581 5   
2582 10  
2583 5   
2584 1   
2585 6   
2586 1   
2587 7   
2588 8   
2589 5   
2590 5   
2591 7   
2592 7   
2593 3   
2594 10  
2595 4   
2596 8   
2597 3   
2598 9   
2599 9   
2600 3   
2601 9   
2602 9   
2603 2   
2604 6   
2605 7   
2606 8   
2607 8   
2608 8   
2609 8   
2610 6   
2611 6   
2612 9   
2613 2   
2614 8   
2615 10  
2616 9   
2617 10  
2618 2   
2619 6   
2620 10  
2621 3   
2622 5   
2623 5   
2624 6   
2625 10  
2626 4   
2627 2   
2628 8   
2629 8   
2630 4   
2631 10  
2632 4   
2633 7   
2634 7   
2635 3   
2636 9   
2637 5   
2638 8   
2639 8   
2640 10  
2641 65  
2642 9   
2643 3   
2644 1   
2645 4   
2646 5   
2647 65  
2648 1   
2649 1   
2650 9   
2651 6   
2652 9   
2653 3   
2654 1   
2655 96  
2656 10  
2657 7   
2658 5   
2659 7   
2660 7   
2661 61  
2662 1   
2663 9   
2664 10  
2665 6   
2666 8   
2667 3   
2668 9   
2669 5   
2670 71  
2671 6   
2672 8   
2673 3   
2674 8   
2675 58  
2676 5   
2677 7   
2678 10  
2679 1   
2680 7   
2681 9   
2682 3   
2683 5   
2684 1   
2685 4   
2686 7   
2687 2   
2688 7   
2689 1   
2690 4   
2691 2   
2692 3   
2693 10  
2694 3   
2695 4   
2696 8   
2697 7   
2698 10  
2699 10  
2700 77  
2701 10  
2702 7   
2703 1   
2704 8   
2705 56  
2706 2   
2707 4   
2708 58  
2709 5   
2710 1   
2711 7   
2712 9   
2713 4   
2714 1   
2715 2   
2716 9   
2717 7   
2718 6   
2719 9   
2720 8   
2721 2   
2722 9   
2723 8   
2724 9   
2725 5   
2726 5   
2727 7   
2728 96  
2729 10  
2730 4   
2731 2   
2732 8   
2733 6   
2734 1   
2735 6   
2736 7   
2737 7   
2738 8   
2739 3   
2740 9   
2741 6   
2742 5   
2743 4   
2744 1   
2745 7   
2746 8   
2747 9   
2748 10  
2749 6   
2750 10  
2751 2   
2752 10  
2753 9   
2754 8   
2755 2   
2756 7   
2757 1   
2758 2   
2759 5   
2760 3   
2761 56  
2762 99  
2763 78  
2764 2   
2765 3   
2766 3   
2767 4   
2768 1   
2769 2   
2770 1   
2771 6   
2772 10  
2773 9   
2774 3   
2775 10  
2776 5   
2777 7   
2778 4   
2779 9   
2780 9   
2781 5   
2782 7   
2783 8   
2784 6   
2785 57  
2786 5   
2787 7   
2788 5   
2789 4   
2790 6   
2791 7   
2792 9   
2793 1   
2794 5   
2795 4   
2796 7   
2797 3   
2798 2   
2799 9   
2800 2   
2801 4   
2802 7   
2803 6   
2804 2   
2805 10  
2806 10  
2807 2   
2808 9   
2809 98  
2810 4   
2811 1   
2812 6   
2813 9   
2814 99  
2815 7   
2816 10  
2817 5   
2818 9   
2819 7   
2820 9   
2821 6   
2822 3   
2823 3   
2824 1   
2825 4   
2826 7   
2827 2   
2828 10  
2829 6   
2830 6   
2831 1   
2832 3   
2833 6   
2834 3   
2835 1   
2836 5   
2837 4   
2838 6   
2839 7   
2840 2   
2841 7   
2842 7   
2843 7   
2844 10  
2845 9   
2846 2   
2847 2   
2848 3   
2849 2   
2850 9   
2851 8   
2852 6   
2853 5   
2854 9   
2855 6   
2856 1   
2857 2   
2858 3   
2859 10  
2860 4   
2861 4   
2862 7   
2863 1   
2864 8   
2865 5   
2866 3   
2867 5   
2868 2   
2869 4   
2870 7   
2871 7   
2872 2   
2873 1   
2874 4   
2875 71  
2876 3   
2877 6   
2878 1   
2879 7   
2880 5   
2881 3   
2882 8   
2883 8   
2884 9   
2885 4   
2886 6   
2887 9   
2888 5   
2889 2   
2890 1   
2891 1   
2892 9   
2893 3   
2894 10  
2895 6   
2896 8   
2897 9   
2898 2   
2899 9   
2900 3   
2901 2   
2902 6   
2903 8   
2904 7   
2905 2   
2906 7   
2907 6   
2908 9   
2909 3   
2910 6   
2911 9   
2912 10  
2913 2   
2914 4   
2915 97  
2916 5   
2917 7   
2918 83  
2919 5   
2920 9   
2921 2   
2922 7   
2923 9   
2924 4   
2925 6   
2926 2   
2927 9   
2928 4   
2929 6   
2930 7   
2931 4   
2932 5   
2933 10  
2934 71  
2935 8   
2936 7   
2937 7   
2938 2   
2939 5   
2940 4   
2941 8   
2942 7   
2943 83  
2944 3   
2945 68  
2946 60  
2947 9   
2948 8   
2949 5   
2950 4   
2951 6   
2952 2   
2953 5   
2954 1   
2955 10  
2956 3   
2957 7   
2958 4   
2959 7   
2960 7   
2961 9   
2962 10  
2963 9   
2964 6   
2965 4   
2966 1   
2967 1   
2968 2   
2969 2   
2970 3   
2971 2   
2972 3   
2973 9   
2974 2   
2975 9   
2976 6   
2977 2   
2978 7   
2979 6   
2980 6   
2981 86  
2982 84  
2983 4   
2984 7   
2985 9   
2986 9   
2987 4   
2988 4   
2989 1   
2990 2   
2991 8   
2992 1   
2993 6   
2994 9   
2995 88  
2996 8   
2997 5   
2998 91  
2999 2   
3000 4   
3001 9   
3002 5   
3003 3   
3004 1   
3005 6   
3006 5   
3007 10  
3008 9   
3009 2   
3010 5   
3011 5   
3012 83  
3013 1   
3014 8   
3015 10  
3016 6   
3017 3   
3018 7   
3019 3   
3020 2   
3021 7   
3022 2   
3023 7   
3024 1   
3025 1   
3026 7   
3027 3   
3028 2   
3029 8   
3030 3   
3031 5   
3032 4   
3033 3   
3034 50  
3035 5   
3036 3   
3037 3   
3038 2   
3039 1   
3040 2   
3041 6   
3042 2   
3043 9   
3044 7   
3045 10  
3046 1   
3047 10  
3048 4   
3049 1   
3050 2   
3051 2   
3052 6   
3053 58  
3054 3   
3055 1   
3056 2   
3057 3   
3058 7   
3059 7   
3060 2   
3061 9   
3062 3   
3063 9   
3064 7   
3065 4   
3066 5   
3067 8   
3068 8   
3069 2   
3070 9   
3071 2   
3072 4   
3073 9   
3074 5   
3075 5   
3076 9   
3077 3   
3078 1   
3079 5   
3080 82  
3081 3   
3082 3   
3083 5   
3084 6   
3085 4   
3086 51  
3087 2   
3088 2   
3089 1   
3090 6   
3091 8   
3092 8   
3093 4   
3094 4   
3095 9   
3096 10  
3097 8   
3098 10  
3099 5   
3100 7   
3101 64  
3102 10  
3103 8   
3104 7   
3105 5   
3106 98  
3107 7   
3108 7   
3109 1   
3110 7   
3111 6   
3112 5   
3113 5   
3114 3   
3115 6   
3116 5   
3117 7   
3118 9   
3119 7   
3120 5   
3121 10  
3122 5   
3123 3   
3124 7   
3125 1   
3126 2   
3127 1   
3128 5   
3129 8   
3130 7   
3131 2   
3132 9   
3133 7   
3134 6   
3135 1   
3136 9   
3137 10  
3138 5   
3139 3   
3140 3   
3141 10  
3142 1   
3143 4   
3144 7   
3145 1   
3146 5   
3147 6   
3148 10  
3149 3   
3150 5   
3151 3   
3152 8   
3153 3   
3154 5   
3155 9   
3156 65  
3157 3   
3158 4   
3159 3   
3160 3   
3161 4   
3162 2   
3163 1   
3164 5   
3165 4   
3166 5   
3167 4   
3168 1   
3169 67  
3170 5   
3171 9   
3172 4   
3173 98  
3174 3   
3175 3   
3176 99  
3177 3   
3178 76  
3179 9   
3180 8   
3181 5   
3182 6   
3183 2   
3184 2   
3185 7   
3186 7   
3187 9   
3188 9   
3189 9   
3190 6   
3191 10  
3192 6   
3193 1   
3194 87  
3195 8   
3196 3   
3197 5   
3198 5   
3199 8   
3200 7   
3201 4   
3202 9   
3203 8   
3204 5   
3205 4   
3206 1   
3207 1   
3208 9   
3209 9   
3210 1   
3211 5   
3212 2   
3213 1   
3214 8   
3215 6   
3216 10  
3217 99  
3218 9   
3219 9   
3220 7   
3221 1   
3222 1   
3223 5   
3224 10  
3225 94  
3226 3   
3227 10  
3228 5   
3229 8   
3230 5   
3231 3   
3232 2   
3233 6   
3234 9   
3235 8   
3236 8   
3237 2   
3238 2   
3239 2   
3240 9   
3241 8   
3242 1   
3243 10  
3244 8   
3245 8   
3246 10  
3247 5   
3248 9   
3249 10  
3250 4   
3251 2   
3252 94  
3253 4   
3254 8   
3255 8   
3256 6   
3257 2   
3258 8   
3259 8   
3260 8   
3261 3   
3262 5   
3263 2   
3264 8   
3265 5   
3266 4   
3267 8   
3268 1   
3269 9   
3270 3   
3271 8   
3272 1   
3273 10  
3274 5   
3275 6   
3276 6   
3277 1   
3278 91  
3279 10  
3280 5   
3281 8   
3282 3   
3283 1   
3284 1   
3285 5   
3286 2   
3287 1   
3288 5   
3289 8   
3290 10  
3291 97  
3292 7   
3293 3   
3294 2   
3295 8   
3296 1   
3297 2   
3298 1   
3299 2   
3300 5   
3301 3   
3302 4   
3303 2   
3304 8   
3305 4   
3306 2   
3307 5   
3308 3   
3309 9   
3310 6   
3311 4   
3312 68  
3313 10  
3314 1   
3315 5   
3316 3   
3317 10  
3318 1   
3319 5   
3320 5   
3321 7   
3322 7   
3323 7   
3324 1   
3325 7   
3326 65  
3327 7   
3328 2   
3329 9   
3330 9   
3331 7   
3332 8   
3333 5   
3334 8   
3335 8   
3336 1   
3337 1   
3338 7   
3339 3   
3340 3   
3341 7   
3342 5   
3343 9   
3344 1   
3345 1   
3346 2   
3347 99  
3348 3   
3349 5   
3350 10  
3351 8   
3352 7   
3353 2   
3354 4   
3355 4   
3356 9   
3357 9   
3358 8   
3359 3   
3360 7   
3361 61  
3362 6   
3363 5   
3364 4   
3365 9   
3366 4   
3367 1   
3368 2   
3369 9   
3370 6   
3371 61  
3372 5   
3373 6   
3374 9   
3375 5   
3376 8   
3377 7   
3378 6   
3379 8   
3380 8   
3381 4   
3382 3   
3383 3   
3384 7   
3385 57  
3386 5   
3387 8   
3388 6   
3389 8   
3390 1   
3391 4   
3392 57  
3393 4   
3394 2   
3395 4   
3396 10  
3397 9   
3398 8   
3399 7   
3400 1   
3401 3   
3402 8   
3403 10  
3404 3   
3405 8   
3406 4   
3407 8   
3408 1   
3409 10  
3410 6   
3411 10  
3412 78  
3413 8   
3414 9   
3415 54  
3416 2   
3417 2   
3418 6   
3419 8   
3420 10  
3421 8   
3422 6   
3423 1   
3424 7   
3425 3   
3426 2   
3427 4   
3428 5   
3429 2   
3430 1   
3431 76  
3432 2   
3433 8   
3434 10  
3435 92  
3436 2   
3437 10  
3438 6   
3439 3   
3440 3   
3441 3   
3442 1   
3443 7   
3444 3   
3445 3   
3446 10  
3447 3   
3448 7   
3449 2   
3450 5   
3451 7   
3452 5   
3453 5   
3454 2   
3455 8   
3456 7   
3457 79  
3458 5   
3459 8   
3460 9   
3461 6   
3462 9   
3463 3   
3464 5   
3465 10  
3466 57  
3467 4   
3468 4   
3469 6   
3470 8   
3471 6   
3472 8   
3473 2   
3474 9   
3475 7   
3476 7   
3477 6   
3478 4   
3479 1   
3480 5   
3481 1   
3482 1   
3483 1   
3484 6   
3485 4   
3486 6   
3487 7   
3488 6   
3489 10  
3490 2   
3491 1   
3492 5   
3493 5   
3494 8   
3495 5   
3496 5   
3497 5   
3498 9   
3499 1   
3500 3   
3501 5   
3502 8   
3503 5   
3504 3   
3505 52  
3506 8   
3507 6   
3508 59  
3509 8   
3510 10  
3511 3   
3512 1   
3513 10  
3514 6   
3515 6   
3516 2   
3517 5   
3518 9   
3519 4   
3520 1   
3521 3   
3522 2   
3523 5   
3524 9   
3525 6   
3526 8   
3527 5   
3528 8   
3529 10  
3530 9   
3531 4   
3532 4   
3533 1   
3534 1   
3535 3   
3536 4   
3537 7   
3538 4   
3539 9   
3540 8   
3541 7   
3542 52  
3543 9   
3544 6   
3545 2   
3546 4   
3547 4   
3548 6   
3549 8   
3550 5   
3551 4   
3552 10  
3553 56  
3554 5   
3555 1   
3556 1   
3557 10  
3558 6   
3559 9   
3560 2   
3561 9   
3562 9   
3563 63  
3564 5   
3565 5   
3566 9   
3567 5   
3568 5   
3569 10  
3570 6   
3571 1   
3572 2   
3573 9   
3574 9   
3575 6   
3576 52  
3577 3   
3578 10  
3579 2   
3580 8   
3581 7   
3582 6   
3583 9   
3584 5   
3585 6   
3586 7   
3587 6   
3588 2   
3589 3   
3590 3   
3591 9   
3592 50  
3593 2   
3594 8   
3595 7   
3596 4   
3597 2   
3598 5   
3599 5   
3600 2   
3601 2   
3602 91  
3603 4   
3604 7   
3605 6   
3606 3   
3607 2   
3608 5   
3609 79  
3610 10  
3611 2   
3612 10  
3613 9   
3614 6   
3615 6   
3616 3   
3617 6   
3618 2   
3619 6   
3620 79  
3621 7   
3622 1   
3623 6   
3624 5   
3625 2   
3626 2   
3627 4   
3628 1   
3629 3   
3630 3   
3631 4   
3632 2   
3633 8   
3634 5   
3635 51  
3636 5   
3637 3   
3638 6   
3639 9   
3640 3   
3641 1   
3642 62  
3643 3   
3644 3   
3645 5   
3646 6   
3647 64  
3648 1   
3649 3   
3650 4   
3651 10  
3652 57  
3653 5   
3654 5   
3655 8   
3656 7   
3657 8   
3658 9   
3659 7   
3660 9   
3661 2   
3662 2   
3663 67  
3664 7   
3665 10  
3666 10  
3667 7   
3668 73  
3669 6   
3670 1   
3671 8   
3672 5   
3673 1   
3674 5   
3675 9   
3676 8   
3677 4   
3678 8   
3679 8   
3680 4   
3681 8   
3682 1   
3683 1   
3684 8   
3685 57  
3686 10  
3687 10  
3688 7   
3689 6   
3690 10  
3691 9   
3692 3   
3693 10  
3694 7   
3695 3   
3696 1   
3697 9   
3698 9   
3699 7   
3700 6   
3701 8   
3702 9   
3703 4   
3704 3   
3705 9   
3706 5   
3707 1   
3708 4   
3709 7   
3710 9   
3711 1   
3712 4   
3713 10  
3714 9   
3715 2   
3716 6   
3717 2   
3718 6   
3719 7   
3720 2   
3721 3   
3722 9   
3723 1   
3724 9   
3725 5   
3726 94  
3727 4   
3728 9   
3729 5   
3730 7   
3731 3   
3732 1   
3733 2   
3734 4   
3735 9   
3736 10  
3737 3   
3738 6   
3739 4   
3740 10  
3741 1   
3742 9   
3743 3   
3744 5   
3745 4   
3746 6   
3747 2   
3748 2   
3749 65  
3750 9   
3751 6   
3752 6   
3753 9   
3754 6   
3755 5   
3756 9   
3757 5   
3758 8   
3759 9   
3760 6   
3761 8   
3762 6   
3763 1   
3764 7   
3765 4   
3766 69  
3767 7   
3768 3   
3769 9   
3770 2   
3771 2   
3772 1   
3773 7   
3774 5   
3775 1   
3776 7   
3777 4   
3778 10  
3779 3   
3780 7   
3781 10  
3782 5   
3783 2   
3784 2   
3785 10  
3786 5   
3787 6   
3788 8   
3789 3   
3790 3   
3791 1   
3792 5   
3793 6   
3794 10  
3795 5   
3796 3   
3797 10  
3798 1   
3799 5   
3800 4   
3801 5   
3802 8   
3803 6   
3804 9   
3805 2   
3806 4   
3807 10  
3808 8   
3809 9   
3810 8   
3811 1   
3812 2   
3813 5   
3814 5   
3815 76  
3816 7   
3817 1   
3818 3   
3819 3   
3820 9   
3821 5   
3822 9   
3823 1   
3824 1   
3825 10  
3826 10  
3827 2   
3828 4   
3829 2   
3830 3   
3831 6   
3832 94  
3833 10  
3834 9   
3835 10  
3836 2   
3837 2   
3838 1   
3839 6   
3840 9   
3841 8   
3842 5   
3843 6   
3844 5   
3845 1   
3846 3   
3847 6   
3848 10  
3849 4   
3850 9   
3851 8   
3852 7   
3853 4   
3854 6   
3855 6   
3856 9   
3857 6   
3858 9   
3859 3   
3860 6   
3861 9   
3862 8   
3863 9   
3864 3   
3865 10  
3866 3   
3867 2   
3868 1   
3869 6   
3870 8   
3871 9   
3872 10  
3873 1   
3874 7   
3875 3   
3876 7   
3877 4   
3878 4   
3879 7   
3880 9   
3881 4   
3882 5   
3883 6   
3884 9   
3885 6   
3886 8   
3887 6   
3888 5   
3889 8   
3890 1   
3891 10  
3892 3   
3893 6   
3894 2   
3895 4   
3896 9   
3897 10  
3898 6   
3899 3   
3900 2   
3901 51  
3902 8   
3903 7   
3904 7   
3905 7   
3906 2   
3907 10  
3908 8   
3909 51  
3910 2   
3911 1   
3912 8   
3913 7   
3914 10  
3915 2   
3916 7   
3917 7   
3918 6   
3919 2   
3920 9   
3921 7   
3922 77  
3923 5   
3924 9   
3925 4   
3926 8   
3927 4   
3928 4   
3929 10  
3930 10  
3931 6   
3932 6   
3933 9   
3934 10  
3935 2   
3936 10  
3937 3   
3938 10  
3939 7   
3940 2   
3941 7   
3942 3   
3943 6   
3944 1   
3945 1   
3946 5   
3947 5   
3948 5   
3949 3   
3950 9   
3951 10  
3952 9   
3953 8   
3954 5   
3955 9   
3956 82  
3957 2   
3958 3   
3959 4   
3960 6   
3961 8   
3962 1   
3963 3   
3964 5   
3965 7   
3966 5   
3967 6   
3968 1   
3969 3   
3970 2   
3971 4   
3972 2   
3973 10  
3974 8   
3975 6   
3976 10  
3977 1   
3978 10  
3979 10  
3980 77  
3981 4   
3982 4   
3983 6   
3984 7   
3985 1   
3986 7   
3987 5   
3988 5   
3989 9   
3990 2   
3991 5   
3992 62  
3993 6   
3994 55  
3995 3   
3996 7   
3997 3   
3998 10  
3999 5   
4000 7   
4001 7   
4002 3   
4003 3   
4004 2   
4005 5   
4006 1   
4007 6   
4008 5   
4009 6   
4010 6   
4011 1   
4012 10  
4013 9   
4014 1   
4015 8   
4016 3   
4017 7   
4018 1   
4019 2   
4020 7   
4021 1   
4022 2   
4023 4   
4024 3   
4025 9   
4026 1   
4027 4   
4028 9   
4029 91  
4030 7   
4031 68  
4032 2   
4033 3   
4034 7   
4035 2   
4036 10  
4037 8   
4038 5   
4039 86  
4040 9   
4041 2   
4042 2   
4043 10  
4044 7   
4045 10  
4046 5   
4047 10  
4048 7   
4049 1   
4050 10  
4051 7   
4052 10  
4053 1   
4054 10  
4055 8   
4056 6   
4057 7   
4058 6   
4059 4   
4060 2   
4061 10  
4062 81  
4063 9   
4064 4   
4065 63  
4066 1   
4067 4   
4068 5   
4069 3   
4070 10  
4071 58  
4072 1   
4073 3   
4074 3   
4075 10  
4076 4   
4077 5   
4078 7   
4079 3   
4080 8   
4081 9   
4082 3   
4083 9   
4084 9   
4085 4   
4086 3   
4087 1   
4088 3   
4089 7   
4090 10  
4091 3   
4092 88  
4093 7   
4094 4   
4095 2   
4096 7   
4097 74  
4098 1   
4099 2   
4100 3   
4101 6   
4102 10  
4103 58  
4104 3   
4105 2   
4106 10  
4107 7   
4108 9   
4109 2   
4110 100 
4111 4   
4112 1   
4113 3   
4114 5   
4115 4   
4116 10  
4117 3   
4118 6   
4119 2   
4120 7   
4121 4   
4122 2   
4123 2   
4124 10  
4125 8   
4126 6   
4127 3   
4128 3   
4129 4   
4130 8   
4131 8   
4132 7   
4133 3   
4134 6   
4135 6   
4136 3   
4137 8   
4138 4   
4139 7   
4140 7   
4141 1   
4142 4   
4143 5   
4144 2   
4145 7   
4146 6   
4147 4   
4148 8   
4149 8   
4150 4   
4151 4   
4152 10  
4153 9   
4154 5   
4155 3   
4156 8   
4157 1   
4158 2   
4159 10  
4160 3   
4161 7   
4162 10  
4163 6   
4164 9   
4165 7   
4166 4   
4167 7   
4168 10  
4169 2   
4170 1   
4171 69  
4172 73  
4173 4   
4174 6   
4175 8   
4176 1   
4177 8   
4178 10  
4179 5   
4180 6   
4181 1   
4182 8   
4183 1   
4184 6   
4185 7   
4186 9   
4187 8   
4188 1   
4189 7   
4190 3   
4191 2   
4192 2   
4193 10  
4194 2   
4195 6   
4196 4   
4197 2   
4198 10  
4199 8   
4200 1   
4201 8   
4202 10  
4203 1   
4204 2   
4205 4   
4206 4   
4207 8   
4208 10  
4209 5   
4210 6   
4211 4   
4212 3   
4213 5   
4214 4   
4215 8   
4216 5   
4217 7   
4218 75  
4219 10  
4220 6   
4221 2   
4222 10  
4223 8   
4224 6   
4225 3   
4226 2   
4227 1   
4228 7   
4229 57  
4230 2   
4231 9   
4232 8   
4233 1   
4234 10  
4235 3   
4236 6   
4237 10  
4238 3   
4239 5   
4240 8   
4241 8   
4242 3   
4243 8   
4244 7   
4245 5   
4246 6   
4247 8   
4248 7   
4249 9   
4250 4   
4251 1   
4252 80  
4253 1   
4254 1   
4255 5   
4256 3   
4257 1   
4258 2   
4259 1   
4260 3   
4261 86  
4262 8   
4263 10  
4264 2   
4265 4   
4266 4   
4267 95  
4268 1   
4269 6   
4270 10  
4271 9   
4272 9   
4273 9   
4274 10  
4275 10  
4276 5   
4277 4   
4278 10  
4279 7   
4280 2   
4281 8   
4282 97  
4283 2   
4284 3   
4285 5   
4286 5   
4287 5   
4288 6   
4289 5   
4290 10  
4291 8   
4292 2   
4293 9   
4294 5   
4295 2   
4296 5   
4297 1   
4298 6   
4299 6   
4300 3   
4301 4   
4302 3   
4303 6   
4304 1   
4305 10  
4306 10  
4307 69  
4308 3   
4309 9   
4310 8   
4311 2   
4312 6   
4313 3   
4314 4   
4315 7   
4316 6   
4317 2   
4318 1   
4319 1   
4320 10  
4321 7   
4322 4   
4323 8   
4324 3   
4325 5   
4326 1   
4327 6   
4328 2   
4329 9   
4330 93  
4331 4   
4332 2   
4333 8   
4334 6   
4335 5   
4336 6   
4337 1   
4338 8   
4339 5   
4340 3   
4341 9   
4342 2   
4343 3   
4344 6   
4345 8   
4346 3   
4347 9   
4348 8   
4349 5   
4350 7   
4351 7   
4352 8   
4353 9   
4354 3   
4355 9   
4356 9   
4357 3   
4358 75  
4359 3   
4360 9   
4361 3   
4362 9   
4363 79  
4364 59  
4365 3   
4366 8   
4367 8   
4368 6   
4369 4   
4370 7   
4371 2   
4372 6   
4373 9   
4374 6   
4375 5   
4376 10  
4377 1   
4378 10  
4379 1   
4380 7   
4381 4   
4382 5   
4383 1   
4384 3   
4385 3   
4386 10  
4387 88  
4388 10  
4389 4   
4390 5   
4391 6   
4392 6   
4393 1   
4394 10  
4395 10  
4396 6   
4397 7   
4398 3   
4399 77  
4400 4   
4401 72  
4402 8   
4403 3   
4404 10  
4405 6   
4406 3   
4407 8   
4408 6   
4409 4   
4410 2   
4411 8   
4412 8   
4413 6   
4414 1   
4415 7   
4416 6   
4417 7   
4418 5   
4419 3   
4420 7   
4421 6   
4422 1   
4423 7   
4424 5   
4425 1   
4426 7   
4427 4   
4428 7   
4429 10  
4430 4   
4431 2   
4432 7   
4433 1   
4434 10  
4435 3   
4436 8   
4437 10  
4438 6   
4439 7   
4440 9   
4441 2   
4442 7   
4443 5   
4444 2   
4445 6   
4446 9   
4447 3   
4448 2   
4449 5   
4450 5   
4451 4   
4452 2   
4453 1   
4454 9   
4455 6   
4456 7   
4457 9   
4458 7   
4459 7   
4460 6   
4461 5   
4462 2   
4463 1   
4464 8   
4465 53  
4466 8   
4467 98  
4468 5   
4469 5   
4470 1   
4471 6   
4472 8   
4473 3   
4474 2   
4475 2   
4476 50  
4477 5   
4478 6   
4479 2   
4480 4   
4481 2   
4482 54  
4483 6   
4484 8   
4485 6   
4486 10  
4487 8   
4488 6   
4489 8   
4490 8   
4491 10  
4492 3   
4493 8   
4494 8   
4495 2   
4496 5   
4497 5   
4498 82  
4499 6   
4500 6   
4501 6   
4502 4   
4503 8   
4504 60  
4505 4   
4506 9   
4507 4   
4508 2   
4509 75  
4510 3   
4511 8   
4512 9   
4513 6   
4514 3   
4515 5   
4516 4   
4517 2   
4518 7   
4519 10  
4520 9   
4521 2   
4522 63  
4523 6   
4524 9   
4525 8   
4526 6   
4527 8   
4528 4   
4529 9   
4530 3   
4531 1   
4532 4   
4533 10  
4534 5   
4535 2   
4536 7   
4537 3   
4538 5   
4539 6   
4540 9   
4541 4   
4542 9   
4543 9   
4544 1   
4545 3   
4546 3   
4547 5   
4548 8   
4549 2   
4550 4   
4551 1   
4552 2   
4553 2   
4554 8   
4555 3   
4556 7   
4557 8   
4558 7   
4559 7   
4560 6   
4561 5   
4562 6   
4563 10  
4564 10  
4565 7   
4566 10  
4567 7   
4568 87  
4569 7   
4570 3   
4571 1   
4572 10  
4573 5   
4574 10  
4575 8   
4576 8   
4577 8   
4578 1   
4579 10  
4580 10  
4581 7   
4582 4   
4583 8   
4584 5   
4585 5   
4586 9   
4587 2   
4588 2   
4589 90  
4590 4   
4591 9   
4592 94  
4593 2   
4594 10  
4595 5   
4596 7   
4597 5   
4598 4   
4599 5   
4600 2   
4601 94  
4602 3   
4603 1   
4604 9   
4605 8   
4606 6   
4607 64  
4608 4   
4609 9   
4610 5   
4611 87  
4612 9   
4613 3   
4614 5   
4615 10  
4616 4   
4617 9   
4618 95  
4619 7   
4620 2   
4621 51  
4622 7   
4623 5   
4624 7   
4625 8   
4626 8   
4627 7   
4628 6   
4629 9   
4630 6   
4631 8   
4632 4   
4633 98  
4634 2   
4635 8   
4636 2   
4637 7   
4638 8   
4639 9   
4640 6   
4641 8   
4642 3   
4643 2   
4644 7   
4645 5   
4646 1   
4647 7   
4648 9   
4649 10  
4650 9   
4651 7   
4652 2   
4653 2   
4654 3   
4655 2   
4656 4   
4657 3   
4658 5   
4659 3   
4660 5   
4661 62  
4662 4   
4663 9   
4664 7   
4665 4   
4666 5   
4667 3   
4668 2   
4669 5   
4670 10  
4671 6   
4672 1   
4673 8   
4674 5   
4675 7   
4676 8   
4677 10  
4678 3   
4679 3   
4680 8   
4681 5   
4682 90  
4683 8   
4684 4   
4685 9   
4686 10  
4687 50  
4688 5   
4689 7   
4690 9   
4691 5   
4692 5   
4693 86  
4694 8   
4695 6   
4696 7   
4697 6   
4698 8   
4699 10  
4700 2   
4701 7   
4702 57  
4703 4   
4704 5   
4705 10  
4706 2   
4707 2   
4708 2   
4709 4   
4710 6   
4711 4   
4712 4   
4713 9   
4714 2   
4715 4   
4716 2   
4717 10  
4718 5   
4719 6   
4720 67  
4721 9   
4722 9   
4723 10  
4724 4   
4725 10  
4726 7   
4727 2   
4728 5   
4729 4   
4730 5   
4731 3   
4732 1   
4733 4   
4734 7   
4735 8   
4736 2   
4737 6   
4738 9   
4739 3   
4740 1   
4741 2   
4742 3   
4743 7   
4744 8   
4745 7   
4746 1   
4747 2   
4748 2   
4749 8   
4750 6   
4751 10  
4752 3   
4753 1   
4754 7   
4755 1   
4756 6   
4757 5   
4758 7   
4759 3   
4760 6   
4761 4   
4762 5   
4763 6   
4764 6   
4765 4   
4766 1   
4767 2   
4768 79  
4769 3   
4770 3   
4771 5   
4772 7   
4773 7   
4774 3   
4775 8   
4776 3   
4777 4   
4778 7   
4779 4   
4780 8   
4781 3   
4782 2   
4783 1   
4784 3   
4785 6   
4786 4   
4787 6   
4788 4   
4789 7   
4790 3   
4791 2   
4792 6   
4793 1   
4794 4   
4795 6   
4796 2   
4797 8   
4798 7   
4799 3   
4800 7   
4801 1   
4802 1   
4803 2   
4804 10  
4805 7   
4806 4   
4807 2   
4808 4   
4809 7   
4810 6   
4811 4   
4812 9   
4813 3   
4814 2   
4815 8   
4816 6   
4817 6   
4818 3   
4819 1   
4820 6   
4821 2   
4822 5   
4823 1   
4824 9   
4825 6   
4826 4   
4827 2   
4828 87  
4829 7   
4830 6   
4831 10  
4832 2   
4833 8   
4834 2   
4835 2   
4836 8   
4837 1   
4838 2   
4839 4   
4840 1   
4841 7   
4842 2   
4843 4   
4844 5   
4845 10  
4846 5   
4847 4   
4848 5   
4849 1   
4850 3   
4851 8   
4852 6   
4853 8   
4854 6   
4855 8   
4856 7   
4857 8   
4858 7   
4859 4   
4860 6   
4861 10  
4862 2   
4863 2   
4864 5   
4865 8   
4866 9   
4867 68  
4868 9   
4869 2   
4870 8   
4871 7   
4872 2   
4873 4   
4874 4   
4875 4   
4876 1   
4877 5   
4878 8   
4879 9   
4880 6   
4881 58  
4882 9   
4883 5   
4884 4   
4885 7   
4886 6   
4887 95  
4888 5   
4889 3   
4890 4   
4891 1   
4892 65  
4893 7   
4894 9   
4895 10  
4896 83  
4897 2   
4898 10  
4899 1   
4900 7   
4901 8   
4902 88  
4903 5   
4904 10  
4905 8   
4906 1   
4907 2   
4908 10  
4909 9   
4910 9   
4911 2   
4912 5   
4913 5   
4914 8   
4915 2   
4916 5   
4917 1   
4918 95  
4919 10  
4920 6   
4921 5   
4922 2   
4923 7   
4924 4   
4925 7   
4926 10  
4927 3   
4928 8   
4929 51  
4930 6   
4931 5   
4932 7   
4933 6   
4934 2   
4935 94  
4936 6   
4937 8   
4938 2   
4939 2   
4940 7   
4941 5   
4942 2   
4943 2   
4944 2   
4945 9   
4946 1   
4947 68  
4948 3   
4949 2   
4950 2   
4951 8   
4952 9   
4953 10  
4954 7   
4955 4   
4956 94  
4957 1   
4958 6   
4959 7   
4960 90  
4961 5   
4962 10  
4963 2   
4964 3   
4965 1   
4966 9   
4967 5   
4968 3   
4969 2   
4970 7   
4971 10  
4972 2   
4973 8   
4974 9   
4975 9   
4976 9   
4977 7   
4978 6   
4979 9   
4980 2   
4981 6   
4982 8   
4983 4   
4984 8   
4985 3   
4986 6   
4987 79  
4988 5   
4989 2   
4990 9   
4991 5   
4992 3   
4993 5   
4994 9   
4995 5   
4996 54  
4997 7   
4998 9   
4999 9   
5000 5   
5001 8   
5002 2   
5003 2   
5004 8   
5005 7   
5006 1   
5007 6   
5008 2   
5009 51  
5010 7   
5011 4   
5012 2   
5013 97  
5014 7   
5015 9   
5016 5   
5017 4   
5018 1   
5019 9   
5020 9   
5021 8   
5022 1   
5023 7   
5024 1   
5025 6   
5026 9   
5027 1   
5028 10  
5029 4   
5030 10  
5031 6   
5032 3   
5033 56  
5034 3   
5035 10  
5036 10  
5037 58  
5038 8   
5039 5   
5040 8   
5041 8   
5042 6   
5043 1   
5044 1   
5045 5   
5046 4   
5047 7   
5048 8   
5049 9   
5050 10  
5051 6   
5052 3   
5053 4   
5054 9   
5055 7   
5056 3   
5057 6   
5058 10  
5059 1   
5060 6   
5061 7   
5062 2   
5063 2   
5064 1   
5065 1   
5066 6   
5067 3   
5068 5   
5069 2   
5070 1   
5071 10  
5072 61  
5073 2   
5074 3   
5075 10  
5076 9   
5077 4   
5078 5   
5079 6   
5080 1   
5081 7   
5082 77  
5083 8   
5084 1   
5085 7   
5086 80  
5087 9   
5088 7   
5089 2   
5090 10  
5091 5   
5092 2   
5093 9   
5094 8   
5095 1   
5096 9   
5097 8   
5098 10  
5099 4   
5100 1   
5101 1   
5102 4   
5103 8   
5104 8   
5105 2   
5106 8   
5107 8   
5108 8   
5109 8   
5110 5   
5111 6   
5112 9   
5113 8   
5114 3   
5115 8   
5116 7   
5117 3   
5118 6   
5119 4   
5120 90  
5121 5   
5122 2   
5123 8   
5124 6   
5125 5   
5126 3   
5127 9   
5128 3   
5129 5   
5130 6   
5131 7   
5132 4   
5133 61  
5134 8   
5135 3   
5136 9   
5137 2   
5138 10  
5139 5   
5140 1   
5141 8   
5142 5   
5143 9   
5144 70  
5145 4   
5146 4   
5147 5   
5148 4   
5149 3   
5150 1   
5151 2   
5152 7   
5153 6   
5154 8   
5155 10  
5156 6   
5157 3   
5158 6   
5159 9   
5160 4   
5161 3   
5162 9   
5163 4   
5164 3   
5165 8   
5166 93  
5167 3   
5168 2   
5169 1   
5170 4   
5171 1   
5172 1   
5173 10  
5174 5   
5175 5   
5176 9   
5177 1   
5178 1   
5179 1   
5180 7   
5181 9   
5182 8   
5183 4   
5184 10  
5185 5   
5186 5   
5187 6   
5188 9   
5189 2   
5190 8   
5191 9   
5192 3   
5193 2   
5194 9   
5195 8   
5196 2   
5197 10  
5198 3   
5199 2   
5200 85  
5201 2   
5202 3   
5203 8   
5204 7   
5205 1   
5206 9   
5207 10  
5208 9   
5209 1   
5210 7   
5211 7   
5212 7   
5213 4   
5214 7   
5215 1   
5216 1   
5217 3   
5218 4   
5219 7   
5220 6   
5221 10  
5222 10  
5223 10  
5224 2   
5225 5   
5226 2   
5227 9   
5228 8   
5229 9   
5230 7   
5231 10  
5232 1   
5233 9   
5234 5   
5235 8   
5236 3   
5237 10  
5238 7   
5239 8   
5240 6   
5241 97  
5242 8   
5243 9   
5244 3   
5245 1   
5246 3   
5247 10  
5248 6   
5249 8   
5250 6   
5251 7   
5252 3   
5253 9   
5254 2   
5255 72  
5256 6   
5257 94  
5258 10  
5259 6   
5260 4   
5261 5   
5262 7   
5263 10  
5264 8   
5265 1   
5266 2   
5267 3   
5268 6   
5269 4   
5270 79  
5271 2   
5272 2   
5273 4   
5274 3   
5275 4   
5276 3   
5277 2   
5278 2   
5279 7   
5280 5   
5281 3   
5282 6   
5283 9   
5284 2   
5285 8   
5286 1   
5287 9   
5288 3   
5289 3   
5290 10  
5291 6   
5292 6   
5293 6   
5294 7   
5295 8   
5296 8   
5297 6   
5298 7   
5299 6   
5300 3   
5301 2   
5302 4   
5303 7   
5304 8   
5305 9   
5306 5   
5307 9   
5308 2   
5309 1   
5310 7   
5311 4   
5312 9   
5313 1   
5314 5   
5315 8   
5316 1   
5317 2   
5318 1   
5319 1   
5320 6   
5321 9   
5322 9   
5323 10  
5324 2   
5325 4   
5326 3   
5327 56  
5328 8   
5329 5   
5330 8   
5331 1   
5332 6   
5333 84  
5334 59  
5335 5   
5336 7   
5337 1   
5338 9   
5339 1   
5340 10  
5341 3   
5342 4   
5343 3   
5344 70  
5345 8   
5346 10  
5347 2   
5348 2   
5349 2   
5350 3   
5351 7   
5352 2   
5353 83  
5354 99  
5355 2   
5356 8   
5357 4   
5358 6   
5359 7   
5360 9   
5361 8   
5362 1   
5363 2   
5364 7   
5365 2   
5366 4   
5367 5   
5368 8   
5369 8   
5370 6   
5371 9   
5372 8   
5373 3   
5374 7   
5375 1   
5376 4   
5377 3   
5378 8   
5379 4   
5380 1   
5381 9   
5382 3   
5383 4   
5384 6   
5385 8   
5386 1   
5387 4   
5388 3   
5389 8   
5390 9   
5391 10  
5392 7   
5393 6   
5394 6   
5395 5   
5396 6   
5397 8   
5398 10  
5399 3   
5400 1   
5401 9   
5402 1   
5403 5   
5404 5   
5405 9   
5406 9   
5407 5   
5408 1   
5409 2   
5410 7   
5411 2   
5412 1   
5413 4   
5414 4   
5415 7   
5416 3   
5417 6   
5418 4   
5419 9   
5420 7   
5421 9   
5422 7   
5423 7   
5424 7   
5425 2   
5426 3   
5427 5   
5428 5   
5429 2   
5430 8   
5431 93  
5432 6   
5433 4   
5434 6   
5435 8   
5436 1   
5437 2   
5438 5   
5439 6   
5440 10  
5441 8   
5442 3   
5443 3   
5444 8   
5445 5   
5446 9   
5447 5   
5448 81  
5449 9   
5450 4   
5451 7   
5452 10  
5453 2   
5454 7   
5455 5   
5456 8   
5457 1   
5458 10  
5459 7   
5460 1   
5461 5   
5462 68  
5463 1   
5464 8   
5465 10  
5466 9   
5467 6   
5468 7   
5469 2   
5470 6   
5471 5   
5472 10  
5473 3   
5474 6   
5475 10  
5476 8   
5477 5   
5478 3   
5479 2   
5480 1   
5481 5   
5482 2   
5483 4   
5484 3   
5485 2   
5486 10  
5487 8   
5488 3   
5489 10  
5490 1   
5491 9   
5492 7   
5493 7   
5494 90  
5495 3   
5496 2   
5497 4   
5498 5   
5499 6   
5500 1   
5501 2   
5502 7   
5503 9   
5504 10  
5505 1   
5506 1   
5507 9   
5508 7   
5509 8   
5510 4   
5511 10  
5512 10  
5513 10  
5514 7   
5515 1   
5516 7   
5517 5   
5518 7   
5519 6   
5520 2   
5521 5   
5522 5   
5523 5   
5524 2   
5525 6   
5526 84  
5527 8   
5528 4   
5529 10  
5530 10  
5531 6   
5532 1   
5533 9   
5534 6   
5535 71  
5536 4   
5537 8   
5538 1   
5539 5   
5540 2   
5541 3   
5542 8   
5543 2   
5544 1   
5545 2   
5546 6   
5547 75  
5548 2   
5549 10  
5550 3   
5551 10  
5552 3   
5553 2   
5554 5   
5555 8   
5556 5   
5557 7   
5558 10  
5559 3   
5560 7   
5561 9   
5562 4   
5563 9   
5564 5   
5565 5   
5566 7   
5567 9   
5568 2   
5569 7   
5570 8   
5571 9   
5572 10  
5573 71  
5574 4   
5575 1   
5576 10  
5577 3   
5578 1   
5579 6   
5580 1   
5581 9   
5582 6   
5583 4   
5584 8   
5585 6   
5586 1   
5587 5   
5588 10  
5589 4   
5590 10  
5591 10  
5592 7   
5593 6   
5594 8   
5595 3   
5596 6   
5597 9   
5598 8   
5599 6   
5600 7   
5601 10  
5602 2   
5603 3   
5604 91  
5605 3   
5606 8   
5607 6   
5608 9   
5609 8   
5610 4   
5611 2   
5612 97  
5613 1   
5614 2   
5615 7   
5616 8   
5617 4   
5618 8   
5619 5   
5620 10  
5621 8   
5622 2   
5623 82  
5624 8   
5625 1   
5626 7   
5627 9   
5628 10  
5629 3   
5630 10  
5631 7   
5632 10  
5633 92  
5634 10  
5635 1   
5636 2   
5637 8   
5638 7   
5639 3   
5640 2   
5641 1   
5642 3   
5643 2   
5644 5   
5645 10  
5646 6   
5647 10  
5648 8   
5649 8   
5650 68  
5651 7   
5652 3   
5653 7   
5654 10  
5655 2   
5656 3   
5657 6   
5658 10  
5659 7   
5660 9   
5661 1   
5662 7   
5663 1   
5664 6   
5665 7   
5666 6   
5667 7   
5668 6   
5669 3   
5670 7   
5671 3   
5672 10  
5673 3   
5674 10  
5675 8   
5676 5   
5677 2   
5678 2   
5679 2   
5680 6   
5681 8   
5682 4   
5683 7   
5684 4   
5685 1   
5686 2   
5687 3   
5688 8   
5689 10  
5690 2   
5691 6   
5692 2   
5693 4   
5694 5   
5695 7   
5696 10  
5697 4   
5698 4   
5699 7   
5700 4   
5701 2   
5702 6   
5703 3   
5704 3   
5705 4   
5706 5   
5707 2   
5708 66  
5709 4   
5710 6   
5711 6   
5712 4   
5713 8   
5714 9   
5715 4   
5716 4   
5717 4   
5718 8   
5719 9   
5720 3   
5721 4   
5722 10  
5723 5   
5724 6   
5725 4   
5726 9   
5727 1   
5728 1   
5729 5   
5730 6   
5731 10  
5732 9   
5733 84  
5734 6   
5735 9   
5736 50  
5737 6   
5738 4   
5739 6   
5740 7   
5741 8   
5742 1   
5743 6   
5744 5   
5745 8   
5746 62  
5747 10  
5748 10  
5749 9   
5750 85  
5751 4   
5752 3   
5753 9   
5754 57  
5755 8   
5756 2   
5757 7   
5758 10  
5759 9   
5760 4   
5761 10  
5762 2   
5763 2   
5764 8   
5765 1   
5766 4   
5767 5   
5768 3   
5769 8   
5770 1   
5771 1   
5772 10  
5773 89  
5774 1   
5775 10  
5776 4   
5777 6   
5778 7   
5779 2   
5780 1   
5781 3   
5782 6   
5783 6   
5784 8   
5785 6   
5786 6   
5787 77  
5788 8   
5789 9   
5790 4   
5791 9   
5792 71  
5793 4   
5794 5   
5795 5   
5796 6   
5797 3   
5798 1   
5799 3   
5800 9   
5801 3   
5802 6   
5803 9   
5804 10  
5805 2   
5806 2   
5807 1   
5808 5   
5809 2   
5810 8   
5811 2   
5812 3   
5813 8   
5814 6   
5815 7   
5816 6   
5817 9   
5818 8   
5819 6   
5820 5   
5821 5   
5822 6   
5823 6   
5824 5   
5825 10  
5826 5   
5827 10  
5828 3   
5829 2   
5830 6   
5831 7   
5832 4   
5833 9   
5834 1   
5835 7   
5836 1   
5837 4   
5838 8   
5839 1   
5840 3   
5841 1   
5842 1   
5843 3   
5844 4   
5845 8   
5846 1   
5847 9   
5848 10  
5849 5   
5850 8   
5851 9   
5852 53  
5853 10  
5854 6   
5855 9   
5856 3   
5857 4   
5858 4   
5859 71  
5860 5   
5861 4   
5862 6   
5863 5   
5864 9   
5865 5   
5866 4   
5867 4   
5868 7   
5869 6   
5870 1   
5871 5   
5872 10  
5873 2   
5874 3   
5875 6   
5876 2   
5877 3   
5878 8   
5879 80  
5880 7   
5881 7   
5882 4   
5883 8   
5884 8   
5885 3   
5886 6   
5887 2   
5888 3   
5889 6   
5890 10  
5891 6   
5892 4   
5893 8   
5894 2   
5895 4   
5896 2   
5897 52  
5898 1   
5899 10  
5900 8   
5901 8   
5902 4   
5903 10  
5904 7   
5905 5   
5906 6   
5907 4   
5908 4   
5909 5   
5910 8   
5911 2   
5912 7   
5913 1   
5914 8   
5915 2   
5916 7   
5917 1   
5918 9   
5919 8   
5920 10  
5921 8   
5922 3   
5923 99  
5924 61  
5925 4   
5926 9   
5927 10  
5928 2   
5929 4   
5930 2   
5931 7   
5932 7   
5933 5   
5934 6   
5935 9   
5936 6   
5937 5   
5938 5   
5939 7   
5940 9   
5941 9   
5942 8   
5943 2   
5944 2   
5945 6   
5946 1   
5947 2   
5948 74  
5949 3   
5950 4   
5951 6   
5952 9   
5953 7   
5954 8   
5955 1   
5956 1   
5957 3   
5958 10  
5959 3   
5960 3   
5961 9   
5962 8   
5963 9   
5964 7   
5965 7   
5966 4   
5967 9   
5968 5   
5969 5   
5970 5   
5971 6   
5972 3   
5973 1   
5974 7   
5975 4   
5976 8   
5977 5   
5978 5   
5979 2   
5980 2   
5981 2   
5982 10  
5983 7   
5984 6   
5985 66  
5986 7   
5987 7   
5988 1   
5989 2   
5990 5   
5991 3   
5992 10  
5993 2   
5994 9   
5995 9   
5996 6   
5997 2   
5998 9   
5999 9   
6000 1   
6001 10  
6002 8   
6003 5   
6004 3   
6005 1   
6006 79  
6007 9   
6008 4   
6009 1   
6010 4   
6011 92  
6012 7   
6013 3   
6014 10  
6015 2   
6016 6   
6017 1   
6018 65  
6019 7   
6020 9   
6021 9   
6022 10  
6023 8   
6024 7   
6025 1   
6026 6   
6027 8   
6028 1   
6029 10  
6030 3   
6031 7   
6032 2   
6033 2   
6034 5   
6035 8   
6036 3   
6037 9   
6038 5   
6039 5   
6040 3   
6041 2   
6042 2   
6043 6   
6044 3   
6045 8   
6046 8   
6047 7   
6048 8   
6049 8   
6050 7   
6051 2   
6052 100 
6053 6   
6054 5   
6055 7   
6056 6   
6057 1   
6058 10  
6059 1   
6060 4   
6061 6   
6062 2   
6063 6   
6064 5   
6065 9   
6066 6   
6067 7   
6068 2   
6069 6   
6070 8   
6071 1   
6072 7   
6073 2   
6074 10  
6075 2   
6076 5   
6077 7   
6078 6   
6079 9   
6080 4   
6081 7   
6082 2   
6083 5   
6084 9   
6085 6   
6086 5   
6087 9   
6088 8   
6089 3   
6090 7   
6091 10  
6092 6   
6093 8   
6094 6   
6095 7   
6096 10  
6097 6   
6098 4   
6099 8   
6100 8   
6101 5   
6102 6   
6103 1   
6104 1   
6105 9   
6106 9   
6107 2   
6108 8   
6109 4   
6110 6   
6111 2   
6112 6   
6113 8   
6114 10  
6115 7   
6116 10  
6117 2   
6118 4   
6119 2   
6120 61  
6121 8   
6122 9   
6123 4   
6124 5   
6125 7   
6126 8   
6127 2   
6128 8   
6129 8   
6130 10  
6131 9   
6132 4   
6133 2   
6134 4   
6135 1   
6136 2   
6137 8   
6138 10  
6139 9   
6140 5   
6141 4   
6142 2   
6143 6   
6144 1   
6145 3   
6146 4   
6147 6   
6148 6   
6149 3   
6150 9   
6151 96  
6152 5   
6153 4   
6154 8   
6155 4   
6156 1   
6157 94  
6158 4   
6159 1   
6160 8   
6161 1   
6162 7   
6163 2   
6164 10  
6165 2   
6166 2   
6167 6   
6168 10  
6169 5   
6170 8   
6171 1   
6172 4   
6173 1   
6174 2   
6175 7   
6176 50  
6177 1   
6178 3   
6179 6   
6180 3   
6181 6   
6182 3   
6183 6   
6184 4   
6185 5   
6186 8   
6187 8   
6188 1   
6189 9   
6190 8   
6191 2   
6192 1   
6193 5   
6194 9   
6195 4   
6196 9   
6197 4   
6198 6   
6199 9   
6200 1   
6201 1   
6202 6   
6203 8   
6204 7   
6205 2   
6206 5   
6207 77  
6208 8   
6209 5   
6210 5   
6211 9   
6212 4   
6213 3   
6214 3   
6215 5   
6216 1   
6217 6   
6218 5   
6219 4   
6220 3   
6221 4   
6222 5   
6223 7   
6224 2   
6225 8   
6226 8   
6227 5   
6228 4   
6229 6   
6230 2   
6231 10  
6232 9   
6233 5   
6234 1   
6235 4   
6236 4   
6237 2   
6238 8   
6239 8   
6240 1   
6241 2   
6242 9   
6243 2   
6244 1   
6245 9   
6246 1   
6247 8   
6248 1   
6249 4   
6250 8   
6251 7   
6252 9   
6253 8   
6254 8   
6255 8   
6256 7   
6257 10  
6258 8   
6259 2   
6260 4   
6261 3   
6262 3   
6263 3   
6264 84  
6265 7   
6266 2   
6267 94  
6268 5   
6269 8   
6270 2   
6271 7   
6272 4   
6273 10  
6274 6   
6275 6   
6276 1   
6277 7   
6278 9   
6279 5   
6280 2   
6281 51  
6282 10  
6283 4   
6284 1   
6285 5   
6286 3   
6287 7   
6288 4   
6289 2   
6290 2   
6291 4   
6292 6   
6293 1   
6294 6   
6295 4   
6296 10  
6297 81  
6298 8   
6299 9   
6300 9   
6301 1   
6302 7   
6303 4   
6304 4   
6305 4   
6306 6   
6307 3   
6308 6   
6309 4   
6310 9   
6311 9   
6312 4   
6313 7   
6314 9   
6315 5   
6316 2   
6317 88  
6318 1   
6319 1   
6320 8   
6321 8   
6322 7   
6323 9   
6324 8   
6325 9   
6326 1   
6327 3   
6328 1   
6329 7   
6330 6   
6331 7   
6332 3   
6333 6   
6334 1   
6335 7   
6336 8   
6337 8   
6338 1   
6339 10  
6340 6   
6341 6   
6342 5   
6343 1   
6344 2   
6345 3   
6346 4   
6347 10  
6348 1   
6349 6   
6350 6   
6351 6   
6352 6   
6353 1   
6354 7   
6355 7   
6356 9   
6357 6   
6358 5   
6359 1   
6360 95  
6361 5   
6362 3   
6363 6   
6364 7   
6365 8   
6366 1   
6367 8   
6368 5   
6369 8   
6370 9   
6371 3   
6372 3   
6373 8   
6374 6   
6375 2   
6376 9   
6377 10  
6378 94  
6379 5   
6380 5   
6381 2   
6382 1   
6383 4   
6384 4   
6385 10  
6386 1   
6387 10  
6388 4   
6389 10  
6390 76  
6391 4   
6392 8   
6393 7   
6394 2   
6395 6   
6396 8   
6397 1   
6398 7   
6399 1   
6400 2   
6401 8   
6402 8   
6403 7   
6404 5   
6405 8   
6406 10  
6407 1   
6408 62  
6409 3   
6410 9   
6411 2   
6412 4   
6413 95  
6414 4   
6415 2   
6416 10  
6417 3   
6418 1   
6419 8   
6420 7   
6421 6   
6422 91  
6423 6   
6424 5   
6425 10  
6426 6   
6427 7   
6428 2   
6429 4   
6430 7   
6431 7   
6432 67  
6433 10  
6434 5   
6435 4   
6436 3   
6437 10  
6438 2   
6439 1   
6440 5   
6441 9   
6442 2   
6443 4   
6444 9   
6445 8   
6446 3   
6447 71  
6448 4   
6449 2   
6450 5   
6451 10  
6452 6   
6453 100 
6454 6   
6455 9   
6456 2   
6457 4   
6458 10  
6459 4   
6460 9   
6461 3   
6462 3   
6463 7   
6464 7   
6465 3   
6466 9   
6467 5   
6468 2   
6469 5   
6470 2   
6471 1   
6472 8   
6473 3   
6474 1   
6475 96  
6476 8   
6477 9   
6478 7   
6479 2   
6480 53  
6481 10  
6482 10  
6483 50  
6484 4   
6485 4   
6486 8   
6487 7   
6488 10  
6489 1   
6490 5   
6491 9   
6492 5   
6493 10  
6494 78  
6495 1   
6496 7   
6497 6   
6498 2   
6499 8   
6500 7   
6501 6   
6502 1   
6503 4   
6504 10  
6505 82  
6506 7   
6507 1   
6508 1   
6509 5   
6510 3   
6511 6   
6512 6   
6513 9   
6514 6   
6515 62  
6516 5   
6517 8   
6518 6   
6519 7   
6520 10  
6521 5   
6522 10  
6523 5   
6524 1   
6525 8   
6526 3   
6527 7   
6528 8   
6529 7   
6530 3   
6531 1   
6532 7   
6533 68  
6534 5   
6535 9   
6536 6   
6537 10  
6538 4   
6539 6   
6540 5   
6541 7   
6542 6   
6543 3   
6544 9   
6545 4   
6546 8   
6547 5   
6548 1   
6549 8   
6550 6   
6551 4   
6552 9   
6553 9   
6554 5   
6555 10  
6556 10  
6557 6   
6558 8   
6559 10  
6560 85  
6561 5   
6562 10  
6563 8   
6564 1   
6565 7   
6566 3   
6567 5   
6568 9   
6569 10  
6570 1   
6571 9   
6572 5   
6573 8   
6574 5   
6575 5   
6576 5   
6577 1   
6578 6   
6579 7   
6580 1   
6581 9   
6582 1   
6583 9   
6584 7   
6585 5   
6586 6   
6587 4   
6588 4   
6589 54  
6590 8   
6591 4   
6592 5   
6593 1   
6594 1   
6595 10  
6596 3   
6597 72  
6598 1   
6599 66  
6600 4   
6601 3   
6602 6   
6603 10  
6604 8   
6605 3   
6606 8   
6607 71  
6608 1   
6609 1   
6610 8   
6611 9   
6612 2   
6613 1   
6614 1   
6615 3   
6616 10  
6617 10  
6618 63  
6619 5   
6620 10  
6621 1   
6622 6   
6623 8   
6624 10  
6625 9   
6626 7   
6627 4   
6628 10  
6629 10  
6630 4   
6631 3   
6632 3   
6633 8   
6634 5   
6635 9   
6636 4   
6637 6   
6638 3   
6639 52  
6640 88  
6641 5   
6642 8   
6643 9   
6644 6   
6645 1   
6646 6   
6647 4   
6648 9   
6649 6   
6650 8   
6651 8   
6652 10  
6653 2   
6654 8   
6655 10  
6656 1   
6657 1   
6658 6   
6659 4   
6660 10  
6661 1   
6662 90  
6663 4   
6664 1   
6665 1   
6666 10  
6667 6   
6668 9   
6669 3   
6670 3   
6671 6   
6672 7   
6673 5   
6674 2   
6675 7   
6676 6   
6677 3   
6678 3   
6679 4   
6680 58  
6681 8   
6682 5   
6683 6   
6684 6   
6685 7   
6686 5   
6687 10  
6688 7   
6689 10  
6690 4   
6691 3   
6692 10  
6693 8   
6694 10  
6695 10  
6696 7   
6697 82  
6698 10  
6699 10  
6700 5   
6701 6   
6702 62  
6703 1   
6704 10  
6705 1   
6706 1   
6707 5   
6708 1   
6709 9   
6710 4   
6711 8   
6712 2   
6713 6   
6714 4   
6715 57  
6716 1   
6717 3   
6718 2   
6719 9   
6720 10  
6721 4   
6722 3   
6723 6   
6724 93  
6725 7   
6726 5   
6727 4   
6728 1   
6729 3   
6730 3   
6731 1   
6732 6   
6733 5   
6734 4   
6735 5   
6736 2   
6737 7   
6738 4   
6739 7   
6740 3   
6741 1   
6742 2   
6743 6   
6744 7   
6745 10  
6746 8   
6747 5   
6748 6   
6749 4   
6750 9   
6751 10  
6752 5   
6753 6   
6754 9   
6755 7   
6756 6   
6757 3   
6758 10  
6759 4   
6760 4   
6761 5   
6762 6   
6763 1   
6764 5   
6765 9   
6766 1   
6767 60  
6768 4   
6769 2   
6770 8   
6771 6   
6772 9   
6773 79  
6774 9   
6775 8   
6776 2   
6777 6   
6778 10  
6779 10  
6780 9   
6781 1   
6782 5   
6783 10  
6784 6   
6785 9   
6786 3   
6787 8   
6788 8   
6789 5   
6790 3   
6791 5   
6792 3   
6793 6   
6794 9   
6795 3   
6796 2   
6797 3   
6798 6   
6799 7   
6800 7   
6801 5   
6802 10  
6803 6   
6804 1   
6805 1   
6806 8   
6807 95  
6808 9   
6809 8   
6810 9   
6811 5   
6812 7   
6813 5   
6814 7   
6815 9   
6816 6   
6817 8   
6818 4   
6819 2   
6820 8   
6821 5   
6822 54  
6823 10  
6824 3   
6825 8   
6826 8   
6827 6   
6828 9   
6829 9   
6830 7   
6831 9   
6832 8   
6833 6   
6834 10  
6835 69  
6836 7   
6837 74  
6838 2   
6839 68  
6840 3   
6841 84  
6842 71  
6843 4   
6844 7   
6845 10  
6846 10  
6847 6   
6848 1   
6849 9   
6850 6   
6851 3   
6852 5   
6853 7   
6854 2   
6855 7   
6856 5   
6857 2   
6858 10  
6859 5   
6860 7   
6861 1   
6862 8   
6863 5   
6864 2   
6865 3   
6866 7   
6867 6   
6868 7   
6869 3   
6870 3   
6871 1   
6872 3   
6873 1   
6874 6   
6875 7   
6876 10  
6877 5   
6878 7   
6879 5   
6880 5   
6881 3   
6882 1   
6883 1   
6884 6   
6885 7   
6886 3   
6887 52  
6888 76  
6889 8   
6890 2   
6891 8   
6892 4   
6893 1   
6894 3   
6895 1   
6896 9   
6897 83  
6898 2   
6899 1   
6900 10  
6901 4   
6902 8   
6903 2   
6904 4   
6905 9   
6906 9   
6907 3   
6908 1   
6909 10  
6910 6   
6911 10  
6912 6   
6913 8   
6914 1   
6915 6   
6916 8   
6917 8   
6918 3   
6919 7   
6920 3   
6921 4   
6922 9   
6923 8   
6924 3   
6925 5   
6926 6   
6927 4   
6928 2   
6929 8   
6930 65  
6931 1   
6932 80  
6933 9   
6934 2   
6935 6   
6936 6   
6937 9   
6938 3   
6939 5   
6940 9   
6941 1   
6942 5   
6943 7   
6944 6   
6945 3   
6946 2   
6947 8   
6948 89  
6949 5   
6950 6   
6951 6   
6952 3   
6953 4   
6954 3   
6955 10  
6956 10  
6957 7   
6958 10  
6959 3   
6960 8   
6961 3   
6962 3   
6963 10  
6964 2   
6965 6   
6966 2   
6967 4   
6968 7   
6969 1   
6970 3   
6971 5   
6972 8   
6973 2   
6974 6   
6975 9   
6976 1   
6977 6   
6978 8   
6979 3   
6980 7   
6981 3   
6982 6   
6983 3   
6984 2   
6985 7   
6986 10  
6987 7   
6988 3   
6989 8   
6990 10  
6991 2   
6992 7   
6993 1   
6994 58  
6995 6   
6996 5   
6997 3   
6998 2   
6999 74  
7000 6   
7001 10  
7002 8   
7003 10  
7004 93  
7005 2   
7006 8   
7007 6   
7008 7   
7009 10  
7010 6   
7011 10  
7012 5   
7013 2   
7014 10  
7015 2   
7016 5   
7017 7   
7018 8   
7019 2   
7020 9   
7021 4   
7022 10  
7023 9   
7024 7   
7025 9   
7026 4   
7027 9   
7028 7   
7029 7   
7030 10  
7031 8   
7032 7   
7033 4   
7034 9   
7035 7   
7036 5   
7037 3   
7038 4   
7039 2   
7040 6   
7041 9   
7042 3   
7043 2   
7044 4   
7045 96  
7046 5   
7047 4   
7048 10  
7049 1   
7050 2   
7051 8   
7052 6   
7053 61  
7054 10  
7055 6   
7056 5   
7057 6   
7058 4   
7059 8   
7060 84  
7061 6   
7062 7   
7063 1   
7064 8   
7065 9   
7066 1   
7067 5   
7068 73  
7069 2   
7070 1   
7071 4   
7072 9   
7073 5   
7074 5   
7075 1   
7076 65  
7077 5   
7078 3   
7079 8   
7080 4   
7081 9   
7082 5   
7083 4   
7084 2   
7085 1   
7086 1   
7087 10  
7088 4   
7089 6   
7090 5   
7091 10  
7092 9   
7093 10  
7094 1   
7095 8   
7096 3   
7097 2   
7098 9   
7099 1   
7100 7   
7101 9   
7102 1   
7103 8   
7104 1   
7105 2   
7106 4   
7107 1   
7108 2   
7109 9   
7110 5   
7111 7   
7112 9   
7113 7   
7114 5   
7115 5   
7116 6   
7117 1   
7118 5   
7119 3   
7120 9   
7121 4   
7122 10  
7123 2   
7124 3   
7125 5   
7126 5   
7127 9   
7128 4   
7129 5   
7130 7   
7131 2   
7132 6   
7133 6   
7134 8   
7135 9   
7136 2   
7137 9   
7138 2   
7139 9   
7140 4   
7141 8   
7142 3   
7143 10  
7144 59  
7145 2   
7146 4   
7147 4   
7148 5   
7149 4   
7150 4   
7151 8   
7152 5   
7153 4   
7154 2   
7155 10  
7156 3   
7157 3   
7158 4   
7159 1   
7160 7   
7161 3   
7162 10  
7163 7   
7164 7   
7165 5   
7166 1   
7167 9   
7168 8   
7169 7   
7170 2   
7171 1   
7172 1   
7173 9   
7174 1   
7175 9   
7176 7   
7177 10  
7178 9   
7179 2   
7180 4   
7181 5   
7182 3   
7183 7   
7184 6   
7185 9   
7186 2   
7187 8   
7188 6   
7189 8   
7190 2   
7191 3   
7192 8   
7193 6   
7194 9   
7195 6   
7196 6   
7197 6   
7198 4   
7199 1   
7200 6   
7201 5   
7202 8   
7203 2   
7204 8   
7205 7   
7206 6   
7207 9   
7208 9   
7209 4   
7210 3   
7211 4   
7212 8   
7213 1   
7214 2   
7215 2   
7216 4   
7217 6   
7218 5   
7219 1   
7220 7   
7221 9   
7222 6   
7223 2   
7224 2   
7225 1   
7226 6   
7227 75  
7228 55  
7229 8   
7230 3   
7231 9   
7232 2   
7233 4   
7234 7   
7235 9   
7236 2   
7237 6   
7238 4   
7239 1   
7240 1   
7241 9   
7242 8   
7243 94  
7244 10  
7245 6   
7246 1   
7247 10  
7248 10  
7249 10  
7250 67  
7251 4   
7252 4   
7253 10  
7254 10  
7255 6   
7256 8   
7257 8   
7258 4   
7259 10  
7260 8   
7261 1   
7262 2   
7263 9   
7264 3   
7265 6   
7266 8   
7267 10  
7268 4   
7269 6   
7270 9   
7271 7   
7272 9   
7273 10  
7274 2   
7275 9   
7276 7   
7277 7   
7278 8   
7279 3   
7280 10  
7281 5   
7282 1   
7283 2   
7284 6   
7285 5   
7286 6   
7287 9   
7288 7   
7289 8   
7290 2   
7291 5   
7292 92  
7293 7   
7294 1   
7295 4   
7296 1   
7297 6   
7298 3   
7299 5   
7300 2   
7301 8   
7302 5   
7303 3   
7304 5   
7305 4   
7306 10  
7307 8   
7308 9   
7309 7   
7310 4   
7311 9   
7312 6   
7313 2   
7314 10  
7315 4   
7316 2   
7317 4   
7318 3   
7319 5   
7320 1   
7321 7   
7322 8   
7323 6   
7324 10  
7325 9   
7326 1   
7327 4   
7328 7   
7329 6   
7330 3   
7331 9   
7332 8   
7333 73  
7334 3   
7335 1   
7336 6   
7337 4   
7338 73  
7339 3   
7340 6   
7341 4   
7342 1   
7343 2   
7344 5   
7345 2   
7346 6   
7347 1   
7348 3   
7349 3   
7350 4   
7351 2   
7352 69  
7353 9   
7354 8   
7355 5   
7356 6   
7357 4   
7358 10  
7359 8   
7360 1   
7361 8   
7362 7   
7363 6   
7364 5   
7365 10  
7366 10  
7367 10  
7368 5   
7369 9   
7370 9   
7371 5   
7372 2   
7373 1   
7374 1   
7375 8   
7376 5   
7377 1   
7378 6   
7379 82  
7380 8   
7381 7   
7382 9   
7383 7   
7384 1   
7385 9   
7386 4   
7387 4   
7388 4   
7389 7   
7390 59  
7391 5   
7392 10  
7393 4   
7394 1   
7395 7   
7396 5   
7397 8   
7398 3   
7399 6   
7400 5   
7401 8   
7402 3   
7403 6   
7404 3   
7405 3   
7406 5   
7407 6   
7408 8   
7409 2   
7410 10  
7411 5   
7412 1   
7413 5   
7414 6   
7415 1   
7416 8   
7417 9   
7418 8   
7419 3   
7420 5   
7421 6   
7422 1   
7423 10  
7424 3   
7425 6   
7426 9   
7427 6   
7428 9   
7429 10  
7430 96  
7431 3   
7432 92  
7433 1   
7434 9   
7435 1   
7436 1   
7437 3   
7438 1   
7439 4   
7440 10  
7441 9   
7442 1   
7443 3   
7444 4   
7445 1   
7446 6   
7447 5   
7448 6   
7449 5   
7450 1   
7451 7   
7452 9   
7453 4   
7454 1   
7455 6   
7456 5   
7457 8   
7458 8   
7459 9   
7460 6   
7461 7   
7462 2   
7463 5   
7464 7   
7465 10  
7466 4   
7467 7   
7468 4   
7469 8   
7470 7   
7471 5   
7472 5   
7473 3   
7474 6   
7475 2   
7476 9   
7477 6   
7478 9   
7479 8   
7480 5   
7481 4   
7482 8   
7483 2   
7484 4   
7485 8   
7486 9   
7487 9   
7488 5   
7489 10  
7490 2   
7491 6   
7492 3   
7493 10  
7494 1   
7495 3   
7496 1   
7497 6   
7498 1   
7499 2   
7500 7   
7501 9   
7502 2   
7503 10  
7504 5   
7505 2   
7506 5   
7507 4   
7508 10  
7509 4   
7510 4   
7511 9   
7512 1   
7513 2   
7514 8   
7515 6   
7516 9   
7517 4   
7518 7   
7519 10  
7520 2   
7521 8   
7522 5   
7523 3   
7524 9   
7525 7   
7526 5   
7527 7   
7528 10  
7529 9   
7530 10  
7531 9   
7532 4   
7533 3   
7534 1   
7535 4   
7536 5   
7537 10  
7538 96  
7539 1   
7540 2   
7541 4   
7542 3   
7543 6   
7544 3   
7545 3   
7546 2   
7547 4   
7548 9   
7549 1   
7550 6   
7551 79  
7552 3   
7553 2   
7554 9   
7555 52  
7556 7   
7557 4   
7558 6   
7559 7   
7560 10  
7561 9   
7562 5   
7563 9   
7564 7   
7565 10  
7566 9   
7567 6   
7568 4   
7569 5   
7570 2   
7571 9   
7572 10  
7573 7   
7574 5   
7575 8   
7576 10  
7577 7   
7578 74  
7579 92  
7580 4   
7581 4   
7582 6   
7583 90  
7584 7   
7585 66  
7586 6   
7587 6   
7588 7   
7589 1   
7590 8   
7591 6   
7592 4   
7593 8   
7594 98  
7595 10  
7596 4   
7597 7   
7598 6   
7599 8   
7600 4   
7601 6   
7602 4   
7603 10  
7604 10  
7605 6   
7606 5   
7607 1   
7608 1   
7609 3   
7610 96  
7611 6   
7612 6   
7613 2   
7614 4   
7615 10  
7616 6   
7617 1   
7618 6   
7619 6   
7620 8   
7621 4   
7622 1   
7623 2   
7624 10  
7625 10  
7626 52  
7627 94  
7628 9   
7629 9   
7630 7   
7631 4   
7632 10  
7633 2   
7634 4   
7635 83  
7636 9   
7637 3   
7638 4   
7639 7   
7640 10  
7641 4   
7642 9   
7643 1   
7644 7   
7645 10  
7646 4   
7647 9   
7648 5   
7649 2   
7650 8   
7651 8   
7652 9   
7653 10  
7654 2   
7655 6   
7656 10  
7657 3   
7658 10  
7659 10  
7660 62  
7661 10  
7662 4   
7663 3   
7664 7   
7665 2   
7666 1   
7667 2   
7668 3   
7669 4   
7670 1   
7671 4   
7672 7   
7673 3   
7674 75  
7675 1   
7676 6   
7677 6   
7678 4   
7679 2   
7680 5   
7681 1   
7682 3   
7683 8   
7684 55  
7685 10  
7686 60  
7687 5   
7688 6   
7689 9   
7690 8   
7691 7   
7692 6   
7693 9   
7694 4   
7695 82  
7696 7   
7697 10  
7698 1   
7699 7   
7700 2   
7701 8   
7702 2   
7703 9   
7704 10  
7705 7   
7706 8   
7707 9   
7708 1   
7709 2   
7710 8   
7711 3   
7712 4   
7713 1   
7714 1   
7715 4   
7716 9   
7717 2   
7718 8   
7719 7   
7720 1   
7721 9   
7722 10  
7723 6   
7724 7   
7725 5   
7726 8   
7727 10  
7728 4   
7729 9   
7730 10  
7731 5   
7732 1   
7733 3   
7734 6   
7735 4   
7736 2   
7737 2   
7738 65  
7739 3   
7740 4   
7741 4   
7742 5   
7743 4   
7744 6   
7745 5   
7746 7   
7747 99  
7748 5   
7749 5   
7750 54  
7751 7   
7752 7   
7753 10  
7754 8   
7755 7   
7756 2   
7757 100 
7758 4   
7759 10  
7760 7   
7761 4   
7762 2   
7763 2   
7764 10  
7765 5   
7766 2   
7767 4   
7768 8   
7769 6   
7770 9   
7771 2   
7772 10  
7773 6   
7774 2   
7775 2   
7776 6   
7777 10  
7778 5   
7779 10  
7780 1   
7781 6   
7782 9   
7783 4   
7784 85  
7785 5   
7786 1   
7787 10  
7788 10  
7789 5   
7790 9   
7791 5   
7792 7   
7793 8   
7794 9   
7795 2   
7796 5   
7797 3   
7798 7   
7799 1   
7800 1   
7801 2   
7802 2   
7803 9   
7804 2   
7805 6   
7806 1   
7807 7   
7808 3   
7809 3   
7810 5   
7811 8   
7812 6   
7813 8   
7814 8   
7815 9   
7816 4   
7817 4   
7818 4   
7819 5   
7820 1   
7821 2   
7822 1   
7823 1   
7824 4   
7825 6   
7826 4   
7827 7   
7828 10  
7829 7   
7830 7   
7831 4   
7832 8   
7833 9   
7834 4   
7835 10  
7836 2   
7837 8   
7838 8   
7839 7   
7840 5   
7841 8   
7842 9   
7843 7   
7844 10  
7845 1   
7846 7   
7847 3   
7848 6   
7849 6   
7850 8   
7851 2   
7852 8   
7853 59  
7854 9   
7855 3   
7856 1   
7857 4   
7858 10  
7859 3   
7860 4   
7861 6   
7862 4   
7863 9   
7864 9   
7865 4   
7866 6   
7867 8   
7868 3   
7869 8   
7870 5   
7871 3   
7872 54  
7873 65  
7874 4   
7875 6   
7876 6   
7877 3   
7878 9   
7879 3   
7880 8   
7881 10  
7882 8   
7883 4   
7884 10  
7885 6   
7886 2   
7887 1   
7888 9   
7889 3   
7890 9   
7891 10  
7892 4   
7893 4   
7894 3   
7895 5   
7896 8   
7897 7   
7898 4   
7899 3   
7900 6   
7901 6   
7902 6   
7903 3   
7904 5   
7905 8   
7906 7   
7907 7   
7908 83  
7909 7   
7910 7   
7911 4   
7912 4   
7913 2   
7914 2   
7915 1   
7916 5   
7917 1   
7918 4   
7919 75  
7920 2   
7921 4   
7922 9   
7923 4   
7924 7   
7925 10  
7926 9   
7927 3   
7928 4   
7929 1   
7930 5   
7931 1   
7932 4   
7933 3   
7934 5   
7935 7   
7936 7   
7937 9   
7938 10  
7939 68  
7940 2   
7941 1   
7942 3   
7943 9   
7944 2   
7945 2   
7946 4   
7947 2   
7948 2   
7949 7   
7950 6   
7951 10  
7952 8   
7953 9   
7954 6   
7955 2   
7956 7   
7957 68  
7958 1   
7959 7   
7960 1   
7961 1   
7962 2   
7963 1   
7964 8   
7965 5   
7966 2   
7967 2   
7968 2   
7969 9   
7970 7   
7971 2   
7972 9   
7973 6   
7974 2   
7975 8   
7976 4   
7977 6   
7978 7   
7979 1   
7980 2   
7981 4   
7982 7   
7983 5   
7984 50  
7985 8   
7986 1   
7987 8   
7988 10  
7989 7   
7990 5   
7991 7   
7992 1   
7993 9   
7994 2   
7995 5   
7996 1   
7997 9   
7998 1   
7999 6   
8000 9   
8001 8   
8002 4   
8003 3   
8004 1   
8005 8   
8006 6   
8007 4   
8008 3   
8009 2   
8010 10  
8011 4   
8012 5   
8013 1   
8014 10  
8015 4   
8016 4   
8017 2   
8018 2   
8019 6   
8020 1   
8021 7   
8022 1   
8023 7   
8024 7   
8025 9   
8026 3   
8027 7   
8028 2   
8029 7   
8030 10  
8031 3   
8032 81  
8033 6   
8034 5   
8035 9   
8036 1   
8037 6   
8038 7   
8039 10  
8040 8   
8041 1   
8042 9   
8043 93  
8044 1   
8045 5   
8046 6   
8047 7   
8048 6   
8049 5   
8050 6   
8051 1   
8052 2   
8053 9   
8054 3   
8055 10  
8056 3   
8057 4   
8058 4   
8059 4   
8060 4   
8061 6   
8062 8   
8063 7   
8064 2   
8065 6   
8066 5   
8067 2   
8068 71  
8069 3   
8070 8   
8071 8   
8072 7   
8073 5   
8074 10  
8075 86  
8076 4   
8077 9   
8078 3   
8079 3   
8080 10  
8081 4   
8082 1   
8083 8   
8084 5   
8085 8   
8086 8   
8087 2   
8088 8   
8089 6   
8090 6   
8091 50  
8092 2   
8093 8   
8094 6   
8095 9   
8096 7   
8097 9   
8098 5   
8099 10  
8100 9   
8101 1   
8102 2   
8103 9   
8104 7   
8105 8   
8106 9   
8107 4   
8108 5   
8109 1   
8110 7   
8111 57  
8112 9   
8113 8   
8114 4   
8115 4   
8116 2   
8117 9   
8118 1   
8119 1   
8120 5   
8121 1   
8122 7   
8123 7   
8124 4   
8125 8   
8126 6   
8127 5   
8128 76  
8129 2   
8130 9   
8131 2   
8132 7   
8133 7   
8134 10  
8135 3   
8136 4   
8137 63  
8138 9   
8139 5   
8140 66  
8141 10  
8142 57  
8143 9   
8144 6   
8145 4   
8146 10  
8147 91  
8148 4   
8149 5   
8150 8   
8151 6   
8152 2   
8153 7   
8154 9   
8155 9   
8156 1   
8157 5   
8158 8   
8159 10  
8160 6   
8161 3   
8162 10  
8163 82  
8164 3   
8165 100 
8166 10  
8167 7   
8168 7   
8169 7   
8170 1   
8171 3   
8172 8   
8173 4   
8174 7   
8175 5   
8176 7   
8177 2   
8178 6   
8179 6   
8180 6   
8181 2   
8182 6   
8183 8   
8184 9   
8185 2   
8186 3   
8187 1   
8188 10  
8189 6   
8190 4   
8191 7   
8192 10  
8193 53  
8194 9   
8195 5   
8196 10  
8197 4   
8198 2   
8199 9   
8200 6   
8201 2   
8202 2   
8203 6   
8204 4   
8205 6   
8206 6   
8207 7   
8208 10  
8209 8   
8210 83  
8211 2   
8212 10  
8213 90  
8214 3   
8215 6   
8216 9   
8217 4   
8218 4   
8219 3   
8220 7   
8221 9   
8222 3   
8223 10  
8224 2   
8225 2   
8226 3   
8227 2   
8228 6   
8229 4   
8230 3   
8231 3   
8232 75  
8233 10  
8234 4   
8235 3   
8236 3   
8237 8   
8238 9   
8239 4   
8240 4   
8241 1   
8242 6   
8243 3   
8244 10  
8245 7   
8246 5   
8247 9   
8248 10  
8249 10  
8250 1   
8251 4   
8252 9   
8253 3   
8254 4   
8255 6   
8256 2   
8257 5   
8258 7   
8259 4   
8260 6   
8261 1   
8262 2   
8263 4   
8264 6   
8265 1   
8266 86  
8267 8   
8268 4   
8269 6   
8270 2   
8271 7   
8272 10  
8273 8   
8274 1   
8275 1   
8276 7   
8277 5   
8278 3   
8279 9   
8280 8   
8281 6   
8282 5   
8283 8   
8284 1   
8285 7   
8286 8   
8287 9   
8288 6   
8289 4   
8290 7   
8291 10  
8292 9   
8293 7   
8294 1   
8295 10  
8296 7   
8297 5   
8298 4   
8299 4   
8300 7   
8301 1   
8302 3   
8303 1   
8304 6   
8305 1   
8306 10  
8307 8   
8308 9   
8309 8   
8310 81  
8311 4   
8312 6   
8313 4   
8314 9   
8315 10  
8316 2   
8317 5   
8318 7   
8319 10  
8320 6   
8321 10  
8322 6   
8323 9   
8324 9   
8325 2   
8326 10  
8327 7   
8328 1   
8329 6   
8330 8   
8331 8   
8332 80  
8333 8   
8334 3   
8335 4   
8336 3   
8337 10  
8338 9   
8339 10  
8340 2   
8341 83  
8342 3   
8343 1   
8344 8   
8345 6   
8346 3   
8347 2   
8348 8   
8349 8   
8350 7   
8351 9   
8352 3   
8353 5   
8354 9   
8355 10  
8356 1   
8357 9   
8358 1   
8359 8   
8360 1   
8361 7   
8362 6   
8363 5   
8364 4   
8365 10  
8366 1   
8367 7   
8368 3   
8369 8   
8370 2   
8371 4   
8372 3   
8373 89  
8374 10  
8375 2   
8376 2   
8377 5   
8378 2   
8379 7   
8380 8   
8381 2   
8382 5   
8383 3   
8384 7   
8385 7   
8386 10  
8387 3   
8388 9   
8389 1   
8390 77  
8391 7   
8392 5   
8393 2   
8394 6   
8395 5   
8396 6   
8397 7   
8398 8   
8399 8   
8400 2   
8401 3   
8402 9   
8403 7   
8404 6   
8405 7   
8406 6   
8407 10  
8408 7   
8409 8   
8410 2   
8411 8   
8412 3   
8413 8   
8414 7   
8415 9   
8416 10  
8417 1   
8418 7   
8419 1   
8420 10  
8421 4   
8422 10  
8423 2   
8424 1   
8425 9   
8426 2   
8427 4   
8428 2   
8429 3   
8430 5   
8431 60  
8432 8   
8433 92  
8434 7   
8435 6   
8436 3   
8437 1   
8438 10  
8439 7   
8440 1   
8441 3   
8442 7   
8443 8   
8444 7   
8445 10  
8446 7   
8447 6   
8448 10  
8449 1   
8450 1   
8451 3   
8452 3   
8453 72  
8454 9   
8455 8   
8456 7   
8457 8   
8458 3   
8459 9   
8460 10  
8461 8   
8462 5   
8463 4   
8464 3   
8465 1   
8466 5   
8467 4   
8468 1   
8469 52  
8470 7   
8471 7   
8472 74  
8473 9   
8474 7   
8475 10  
8476 7   
8477 10  
8478 10  
8479 9   
8480 5   
8481 6   
8482 8   
8483 6   
8484 2   
8485 3   
8486 1   
8487 1   
8488 3   
8489 10  
8490 4   
8491 5   
8492 1   
8493 6   
8494 1   
8495 3   
8496 84  
8497 9   
8498 2   
8499 2   
8500 2   
8501 8   
8502 10  
8503 5   
8504 2   
8505 5   
8506 2   
8507 3   
8508 3   
8509 6   
8510 6   
8511 1   
8512 81  
8513 9   
8514 2   
8515 8   
8516 6   
8517 4   
8518 3   
8519 9   
8520 6   
8521 6   
8522 9   
8523 7   
8524 10  
8525 7   
8526 2   
8527 10  
8528 6   
8529 4   
8530 7   
8531 2   
8532 5   
8533 61  
8534 1   
8535 7   
8536 4   
8537 3   
8538 5   
8539 1   
8540 7   
8541 2   
8542 1   
8543 9   
8544 3   
8545 9   
8546 4   
8547 6   
8548 2   
8549 5   
8550 7   
8551 3   
8552 10  
8553 10  
8554 99  
8555 9   
8556 9   
8557 5   
8558 6   
8559 1   
8560 8   
8561 5   
8562 10  
8563 9   
8564 8   
8565 1   
8566 1   
8567 9   
8568 2   
8569 5   
8570 4   
8571 4   
8572 7   
8573 3   
8574 6   
8575 8   
8576 2   
8577 91  
8578 67  
8579 10  
8580 4   
8581 10  
8582 2   
8583 6   
8584 10  
8585 10  
8586 5   
8587 8   
8588 6   
8589 2   
8590 1   
8591 6   
8592 8   
8593 5   
8594 1   
8595 1   
8596 4   
8597 7   
8598 6   
8599 2   
8600 8   
8601 10  
8602 6   
8603 2   
8604 6   
8605 7   
8606 1   
8607 8   
8608 87  
8609 5   
8610 9   
8611 9   
8612 6   
8613 8   
8614 5   
8615 9   
8616 5   
8617 6   
8618 4   
8619 1   
8620 3   
8621 4   
8622 89  
8623 8   
8624 3   
8625 4   
8626 1   
8627 3   
8628 5   
8629 5   
8630 10  
8631 8   
8632 6   
8633 3   
8634 6   
8635 4   
8636 9   
8637 5   
8638 10  
8639 9   
8640 8   
8641 8   
8642 9   
8643 6   
8644 9   
8645 6   
8646 1   
8647 2   
8648 8   
8649 6   
8650 3   
8651 4   
8652 6   
8653 3   
8654 4   
8655 9   
8656 9   
8657 5   
8658 10  
8659 4   
8660 8   
8661 2   
8662 8   
8663 8   
8664 2   
8665 8   
8666 3   
8667 1   
8668 1   
8669 2   
8670 9   
8671 10  
8672 1   
8673 2   
8674 1   
8675 9   
8676 50  
8677 5   
8678 3   
8679 10  
8680 10  
8681 2   
8682 7   
8683 6   
8684 8   
8685 3   
8686 4   
8687 9   
8688 6   
8689 5   
8690 55  
8691 8   
8692 6   
8693 7   
8694 2   
8695 9   
8696 7   
8697 5   
8698 8   
8699 3   
8700 1   
8701 7   
8702 9   
8703 8   
8704 1   
8705 9   
8706 7   
8707 8   
8708 4   
8709 6   
8710 5   
8711 3   
8712 6   
8713 2   
8714 10  
8715 9   
8716 2   
8717 7   
8718 4   
8719 2   
8720 5   
8721 10  
8722 10  
8723 6   
8724 3   
8725 1   
8726 7   
8727 9   
8728 3   
8729 3   
8730 5   
8731 8   
8732 5   
8733 4   
8734 8   
8735 9   
8736 6   
8737 6   
8738 5   
8739 61  
8740 9   
8741 2   
8742 9   
8743 3   
8744 3   
8745 1   
8746 2   
8747 1   
8748 8   
8749 55  
8750 6   
8751 4   
8752 7   
8753 5   
8754 9   
8755 7   
8756 2   
8757 6   
8758 3   
8759 2   
8760 2   
8761 5   
8762 9   
8763 7   
8764 3   
8765 4   
8766 3   
8767 7   
8768 9   
8769 5   
8770 10  
8771 2   
8772 7   
8773 8   
8774 1   
8775 6   
8776 9   
8777 9   
8778 4   
8779 7   
8780 8   
8781 1   
8782 4   
8783 6   
8784 1   
8785 7   
8786 6   
8787 10  
8788 9   
8789 9   
8790 3   
8791 6   
8792 10  
8793 6   
8794 5   
8795 2   
8796 1   
8797 3   
8798 8   
8799 4   
8800 4   
8801 8   
8802 8   
8803 10  
8804 6   
8805 6   
8806 8   
8807 3   
8808 10  
8809 9   
8810 7   
8811 61  
8812 8   
8813 8   
8814 5   
8815 5   
8816 7   
8817 2   
8818 10  
8819 6   
8820 9   
8821 3   
8822 7   
8823 4   
8824 9   
8825 5   
8826 7   
8827 7   
8828 1   
8829 5   
8830 2   
8831 5   
8832 5   
8833 10  
8834 4   
8835 3   
8836 4   
8837 7   
8838 10  
8839 3   
8840 7   
8841 5   
8842 53  
8843 5   
8844 7   
8845 1   
8846 5   
8847 9   
8848 5   
8849 10  
8850 8   
8851 1   
8852 9   
8853 10  
8854 3   
8855 5   
8856 10  
8857 4   
8858 1   
8859 7   
8860 1   
8861 5   
8862 8   
8863 6   
8864 2   
8865 6   
8866 2   
8867 9   
8868 8   
8869 10  
8870 7   
8871 7   
8872 10  
8873 9   
8874 6   
8875 7   
8876 9   
8877 7   
8878 6   
8879 6   
8880 3   
8881 3   
8882 2   
8883 9   
8884 8   
8885 10  
8886 65  
8887 9   
8888 5   
8889 51  
8890 10  
8891 7   
8892 54  
8893 10  
8894 6   
8895 9   
8896 6   
8897 6   
8898 1   
8899 4   
8900 3   
8901 3   
8902 7   
8903 3   
8904 8   
8905 3   
8906 6   
8907 4   
8908 66  
8909 7   
8910 9   
8911 10  
8912 10  
8913 10  
8914 1   
8915 8   
8916 4   
8917 5   
8918 9   
8919 2   
8920 7   
8921 4   
8922 5   
8923 10  
8924 2   
8925 6   
8926 63  
8927 10  
8928 4   
8929 5   
8930 10  
8931 1   
8932 7   
8933 2   
8934 8   
8935 10  
8936 4   
8937 9   
8938 9   
8939 7   
8940 2   
8941 2   
8942 4   
8943 4   
8944 89  
8945 2   
8946 3   
8947 5   
8948 9   
8949 6   
8950 59  
8951 6   
8952 85  
8953 1   
8954 4   
8955 9   
8956 4   
8957 7   
8958 2   
8959 10  
8960 4   
8961 8   
8962 9   
8963 2   
8964 7   
8965 1   
8966 9   
8967 10  
8968 10  
8969 7   
8970 1   
8971 6   
8972 1   
8973 6   
8974 5   
8975 5   
8976 8   
8977 4   
8978 7   
8979 8   
8980 2   
8981 59  
8982 4   
8983 10  
8984 5   
8985 1   
8986 10  
8987 8   
8988 10  
8989 1   
8990 10  
8991 1   
8992 5   
8993 2   
8994 9   
8995 8   
8996 5   
8997 9   
8998 3   
8999 1   
9000 7   
9001 9   
9002 5   
9003 9   
9004 8   
9005 3   
9006 10  
9007 3   
9008 7   
9009 6   
9010 10  
9011 3   
9012 1   
9013 7   
9014 94  
9015 6   
9016 10  
9017 6   
9018 2   
9019 2   
9020 6   
9021 3   
9022 5   
9023 2   
9024 1   
9025 6   
9026 8   
9027 1   
9028 1   
9029 3   
9030 1   
9031 7   
9032 1   
9033 2   
9034 7   
9035 1   
9036 10  
9037 5   
9038 10  
9039 3   
9040 3   
9041 6   
9042 9   
9043 3   
9044 2   
9045 7   
9046 9   
9047 8   
9048 5   
9049 9   
9050 3   
9051 10  
9052 2   
9053 3   
9054 1   
9055 8   
9056 8   
9057 9   
9058 9   
9059 10  
9060 10  
9061 10  
9062 4   
9063 2   
9064 6   
9065 5   
9066 7   
9067 4   
9068 5   
9069 8   
9070 1   
9071 5   
9072 2   
9073 2   
9074 6   
9075 10  
9076 7   
9077 10  
9078 8   
9079 4   
9080 6   
9081 6   
9082 10  
9083 2   
9084 1   
9085 9   
9086 5   
9087 6   
9088 5   
9089 6   
9090 3   
9091 6   
9092 4   
9093 1   
9094 5   
9095 10  
9096 2   
9097 9   
9098 10  
9099 6   
9100 4   
9101 7   
9102 3   
9103 7   
9104 10  
9105 10  
9106 6   
9107 59  
9108 6   
9109 3   
9110 9   
9111 9   
9112 10  
9113 5   
9114 80  
9115 56  
9116 4   
9117 10  
9118 89  
9119 8   
9120 6   
9121 7   
9122 10  
9123 2   
9124 6   
9125 6   
9126 6   
9127 8   
9128 10  
9129 10  
9130 9   
9131 2   
9132 2   
9133 2   
9134 9   
9135 7   
9136 7   
9137 10  
9138 9   
9139 5   
9140 2   
9141 7   
9142 10  
9143 6   
9144 9   
9145 9   
9146 9   
9147 9   
9148 2   
9149 9   
9150 6   
9151 4   
9152 9   
9153 9   
9154 4   
9155 63  
9156 1   
9157 10  
9158 7   
9159 1   
9160 10  
9161 10  
9162 2   
9163 1   
9164 3   
9165 4   
9166 6   
9167 7   
9168 10  
9169 6   
9170 7   
9171 5   
9172 4   
9173 1   
9174 5   
9175 3   
9176 8   
9177 5   
9178 5   
9179 8   
9180 4   
9181 2   
9182 3   
9183 8   
9184 1   
9185 5   
9186 8   
9187 6   
9188 6   
9189 2   
9190 4   
9191 3   
9192 2   
9193 10  
9194 10  
9195 8   
9196 2   
9197 97  
9198 10  
9199 6   
9200 4   
9201 2   
9202 4   
9203 5   
9204 9   
9205 1   
9206 4   
9207 4   
9208 10  
9209 3   
9210 3   
9211 4   
9212 3   
9213 6   
9214 6   
9215 9   
9216 9   
9217 2   
9218 4   
9219 1   
9220 9   
9221 9   
9222 9   
9223 8   
9224 3   
9225 1   
9226 10  
9227 5   
9228 3   
9229 5   
9230 9   
9231 4   
9232 2   
9233 6   
9234 5   
9235 79  
9236 83  
9237 8   
9238 9   
9239 2   
9240 6   
9241 9   
9242 4   
9243 8   
9244 3   
9245 10  
9246 6   
9247 10  
9248 4   
9249 8   
9250 6   
9251 1   
9252 9   
9253 7   
9254 3   
9255 8   
9256 7   
9257 4   
9258 7   
9259 9   
9260 2   
9261 3   
9262 10  
9263 2   
9264 10  
9265 9   
9266 5   
9267 6   
9268 1   
9269 85  
9270 5   
9271 2   
9272 3   
9273 2   
9274 3   
9275 6   
9276 8   
9277 57  
9278 4   
9279 4   
9280 7   
9281 4   
9282 4   
9283 1   
9284 10  
9285 2   
9286 1   
9287 5   
9288 10  
9289 9   
9290 1   
9291 10  
9292 6   
9293 4   
9294 6   
9295 7   
9296 1   
9297 3   
9298 8   
9299 8   
9300 7   
9301 2   
9302 4   
9303 4   
9304 4   
9305 8   
9306 4   
9307 10  
9308 8   
9309 7   
9310 6   
9311 8   
9312 8   
9313 10  
9314 9   
9315 61  
9316 2   
9317 9   
9318 7   
9319 6   
9320 80  
9321 9   
9322 1   
9323 8   
9324 2   
9325 6   
9326 6   
9327 1   
9328 4   
9329 7   
9330 9   
9331 4   
9332 70  
9333 4   
9334 7   
9335 7   
9336 2   
9337 1   
9338 7   
9339 2   
9340 9   
9341 10  
9342 10  
9343 4   
9344 4   
9345 3   
9346 8   
9347 3   
9348 10  
9349 5   
9350 1   
9351 93  
9352 8   
9353 2   
9354 9   
9355 6   
9356 3   
9357 4   
9358 1   
9359 5   
9360 79  
9361 7   
9362 3   
9363 9   
9364 4   
9365 6   
9366 5   
9367 10  
9368 7   
9369 1   
9370 3   
9371 3   
9372 8   
9373 10  
9374 5   
9375 8   
9376 7   
9377 9   
9378 8   
9379 9   
9380 7   
9381 8   
9382 4   
9383 1   
9384 10  
9385 9   
9386 9   
9387 4   
9388 10  
9389 10  
9390 3   
9391 75  
9392 6   
9393 9   
9394 8   
9395 2   
9396 1   
9397 5   
9398 8   
9399 6   
9400 2   
9401 2   
9402 4   
9403 3   
9404 7   
9405 84  
9406 4   
9407 1   
9408 7   
9409 74  
9410 3   
9411 2   
9412 8   
9413 3   
9414 8   
9415 3   
9416 5   
9417 9   
9418 1   
9419 3   
9420 10  
9421 6   
9422 4   
9423 7   
9424 10  
9425 2   
9426 2   
9427 1   
9428 5   
9429 4   
9430 7   
9431 8   
9432 8   
9433 6   
9434 1   
9435 6   
9436 9   
9437 4   
9438 5   
9439 5   
9440 7   
9441 4   
9442 8   
9443 9   
9444 5   
9445 10  
9446 89  
9447 6   
9448 9   
9449 73  
9450 4   
9451 7   
9452 6   
9453 6   
9454 9   
9455 8   
9456 1   
9457 8   
9458 6   
9459 8   
9460 7   
9461 10  
9462 8   
9463 5   
9464 4   
9465 8   
9466 2   
9467 10  
9468 3   
9469 9   
9470 2   
9471 1   
9472 1   
9473 10  
9474 8   
9475 6   
9476 1   
9477 10  
9478 2   
9479 10  
9480 6   
9481 4   
9482 7   
9483 6   
9484 3   
9485 5   
9486 3   
9487 9   
9488 5   
9489 9   
9490 3   
9491 1   
9492 5   
9493 7   
9494 4   
9495 67  
9496 2   
9497 6   
9498 4   
9499 8   
9500 3   
9501 2   
9502 5   
9503 7   
9504 6   
9505 6   
9506 5   
9507 4   
9508 2   
9509 6   
9510 6   
9511 1   
9512 6   
9513 2   
9514 4   
9515 81  
9516 2   
9517 3   
9518 6   
9519 2   
9520 3   
9521 6   
9522 9   
9523 9   
9524 5   
9525 72  
9526 7   
9527 10  
9528 2   
9529 5   
9530 7   
9531 9   
9532 4   
9533 2   
9534 8   
9535 9   
9536 6   
9537 63  
9538 7   
9539 8   
9540 7   
9541 7   
9542 3   
9543 10  
9544 68  
9545 8   
9546 4   
9547 7   
9548 5   
9549 2   
9550 6   
9551 10  
9552 7   
9553 5   
9554 5   
9555 2   
9556 5   
9557 9   
9558 7   
9559 9   
9560 6   
9561 2   
9562 3   
9563 4   
9564 93  
9565 8   
9566 6   
9567 5   
9568 8   
9569 7   
9570 10  
9571 7   
9572 9   
9573 7   
9574 3   
9575 3   
9576 62  
9577 1   
9578 2   
9579 70  
9580 8   
9581 5   
9582 72  
9583 3   
9584 3   
9585 5   
9586 5   
9587 2   
9588 5   
9589 3   
9590 3   
9591 1   
9592 8   
9593 8   
9594 7   
9595 9   
9596 8   
9597 51  
9598 8   
9599 2   
9600 7   
9601 10  
9602 7   
9603 1   
9604 8   
9605 8   
9606 3   
9607 4   
9608 4   
9609 10  
9610 2   
9611 2   
9612 7   
9613 10  
9614 7   
9615 7   
9616 7   
9617 4   
9618 8   
9619 7   
9620 1   
9621 7   
9622 3   
9623 2   
9624 5   
9625 1   
9626 8   
9627 9   
9628 8   
9629 62  
9630 1   
9631 8   
9632 2   
9633 4   
9634 6   
9635 10  
9636 2   
9637 2   
9638 65  
9639 10  
9640 8   
9641 6   
9642 7   
9643 6   
9644 1   
9645 8   
9646 9   
9647 1   
9648 8   
9649 8   
9650 7   
9651 2   
9652 7   
9653 2   
9654 4   
9655 98  
9656 2   
9657 2   
9658 10  
9659 5   
9660 6   
9661 6   
9662 5   
9663 7   
9664 7   
9665 1   
9666 5   
9667 70  
9668 4   
9669 9   
9670 6   
9671 10  
9672 3   
9673 5   
9674 8   
9675 2   
9676 7   
9677 1   
9678 7   
9679 6   
9680 3   
9681 1   
9682 1   
9683 5   
9684 10  
9685 8   
9686 8   
9687 2   
9688 5   
9689 6   
9690 3   
9691 67  
9692 98  
9693 9   
9694 3   
9695 8   
9696 4   
9697 2   
9698 5   
9699 1   
9700 7   
9701 10  
9702 3   
9703 4   
9704 1   
9705 69  
9706 8   
9707 10  
9708 5   
9709 8   
9710 10  
9711 10  
9712 2   
9713 9   
9714 9   
9715 7   
9716 6   
9717 10  
9718 10  
9719 6   
9720 10  
9721 5   
9722 4   
9723 3   
9724 10  
9725 1   
9726 9   
9727 3   
9728 10  
9729 6   
9730 75  
9731 3   
9732 3   
9733 2   
9734 4   
9735 8   
9736 4   
9737 4   
9738 3   
9739 6   
9740 6   
9741 2   
9742 1   
9743 3   
9744 5   
9745 3   
9746 3   
9747 6   
9748 9   
9749 6   
9750 8   
9751 2   
9752 3   
9753 3   
9754 5   
9755 9   
9756 2   
9757 9   
9758 5   
9759 9   
9760 1   
9761 3   
9762 2   
9763 8   
9764 89  
9765 5   
9766 3   
9767 3   
9768 4   
9769 9   
9770 10  
9771 5   
9772 7   
9773 5   
9774 5   
9775 3   
9776 5   
9777 7   
9778 7   
9779 8   
9780 1   
9781 6   
9782 4   
9783 6   
9784 9   
9785 7   
9786 91  
9787 7   
9788 8   
9789 1   
9790 85  
9791 3   
9792 8   
9793 9   
9794 1   
9795 53  
9796 8   
9797 4   
9798 9   
9799 2   
9800 6   
9801 7   
9802 7   
9803 2   
9804 1   
9805 91  
9806 8   
9807 7   
9808 6   
9809 6   
9810 2   
9811 2   
9812 6   
9813 1   
9814 8   
9815 6   
9816 9   
9817 50  
9818 6   
9819 2   
9820 4   
9821 7   
9822 8   
9823 4   
9824 8   
9825 2   
9826 6   
9827 8   
9828 8   
9829 91  
9830 4   
9831 5   
9832 5   
9833 7   
9834 8   
9835 5   
9836 4   
9837 9   
9838 66  
9839 10  
9840 5   
9841 10  
9842 8   
9843 10  
9844 10  
9845 4   
9846 4   
9847 6   
9848 2   
9849 90  
9850 1   
9851 3   
9852 6   
9853 4   
9854 6   
9855 1   
9856 9   
9857 3   
9858 8   
9859 6   
9860 63  
9861 3   
9862 7   
9863 9   
9864 4   
9865 5   
9866 2   
9867 2   
9868 3   
9869 1   
9870 7   
9871 5   
9872 10  
9873 1   
9874 10  
9875 2   
9876 10  
9877 10  
9878 9   
9879 3   
9880 4   
9881 8   
9882 51  
9883 86  
9884 3   
9885 67  
9886 10  
9887 1   
9888 5   
9889 4   
9890 3   
9891 3   
9892 9   
9893 1   
9894 9   
9895 9   
9896 8   
9897 7   
9898 5   
9899 7   
9900 4   
9901 2   
9902 6   
9903 4   
9904 5   
9905 9   
9906 2   
9907 5   
9908 10  
9909 7   
9910 85  
9911 6   
9912 55  
9913 2   
9914 1   
9915 2   
9916 9   
9917 10  
9918 4   
9919 3   
9920 9   
9921 51  
9922 6   
9923 10  
9924 9   
9925 2   
9926 6   
9927 5   
9928 5   
9929 1   
9930 2   
9931 8   
9932 4   
9933 4   
9934 52  
9935 6   
9936 6   
9937 2   
9938 2   
9939 6   
9940 3   
9941 2   
9942 5   
9943 9   
9944 9   
9945 9   
9946 9   
9947 9   
9948 4   
9949 2   
9950 6   
9951 6   
9952 9   
9953 1   
9954 10  
9955 3   
9956 73  
9957 5   
9958 8   
9959 9   
9960 10  
9961 2   
9962 8   
9963 1   
9964 8   
9965 3   
9966 6   
9967 8   
9968 6   
9969 5   
9970 61  
9971 4   
9972 5   
9973 7   
9974 9   
9975 4   
9976 7   
9977 2   
9978 3   
9979 5   
9980 8   
9981 74  
9982 1   
9983 2   
9984 7   
9985 2   
9986 8   
9987 10  
9988 58  
9989 82  
9990 64  
9991 4   
9992 6   
9993 7   
9994 2   
9995 6   
9996 7   
9997 82  
9998 3   
9999 5   
10000 10  
10001 61  
10002 1   
10003 2   
10004 97  
10005 4   
10006 7   
10007 3   
10008 4   
10009 10  
10010 8   
10011 3   
10012 1   
10013 7   
10014 8   
10015 9   
10016 4   
10017 10  
10018 10  
10019 2   
10020 10  
10021 7   
10022 8   
10023 2   
10024 5   
10025 5   
10026 77  
10027 9   
10028 7   
10029 3   
10030 9   
10031 8   
10032 1   
10033 6   
10034 6   
10035 7   
10036 10  
10037 2   
10038 9   
10039 10  
10040 6   
10041 1   
10042 1   
10043 91  
10044 5   
10045 4   
10046 8   
10047 5   
10048 5   
10049 3   
10050 72  
10051 5   
10052 10  
10053 2   
10054 3   
10055 1   
10056 76  
10057 7   
10058 10  
10059 1   
10060 2   
10061 10  
10062 10  
10063 6   
10064 7   
10065 10  
10066 5   
10067 7   
10068 6   
10069 9   
10070 6   
10071 5   
10072 2   
10073 7   
10074 4   
10075 10  
10076 3   
10077 4   
10078 10  
10079 1   
10080 6   
10081 9   
10082 9   
10083 71  
10084 5   
10085 4   
10086 6   
10087 8   
10088 3   
10089 87  
10090 6   
10091 6   
10092 7   
10093 3   
10094 1   
10095 6   
10096 6   
10097 9   
10098 10  
10099 6   
10100 10  
10101 9   
10102 70  
10103 2   
10104 6   
10105 10  
10106 1   
10107 9   
10108 4   
10109 7   
10110 7   
10111 10  
10112 3   
10113 3   
10114 7   
10115 7   
10116 1   
10117 64  
10118 9   
10119 2   
10120 7   
10121 5   
10122 5   
10123 1   
10124 4   
10125 1   
10126 94  
10127 9   
10128 3   
10129 6   
10130 6   
10131 4   
10132 1   
10133 10  
10134 2   
10135 4   
10136 3   
10137 90  
10138 8   
10139 10  
10140 3   
10141 2   
10142 4   
10143 4   
10144 3   
10145 2   
10146 1   
10147 7   
10148 5   
10149 10  
10150 5   
10151 3   
10152 4   
10153 10  
10154 4   
10155 5   
10156 4   
10157 2   
10158 5   
10159 8   
10160 2   
10161 6   
10162 2   
10163 9   
10164 5   
10165 3   
10166 9   
10167 3   
10168 1   
10169 8   
10170 4   
10171 6   
10172 5   
10173 10  
10174 6   
10175 1   
10176 8   
10177 5   
10178 1   
10179 4   
10180 3   
10181 8   
10182 10  
10183 4   
10184 2   
10185 10  
10186 6   
10187 5   
10188 10  
10189 7   
10190 9   
10191 6   
10192 88  
10193 79  
10194 65  
10195 1   
10196 8   
10197 1   
10198 7   
10199 8   
10200 6   
10201 97  
10202 9   
10203 2   
10204 6   
10205 7   
10206 7   
10207 9   
10208 1   
10209 1   
10210 6   
10211 7   
10212 4   
10213 5   
10214 7   
10215 5   
10216 4   
10217 6   
10218 7   
10219 3   
10220 7   
10221 4   
10222 65  
10223 8   
10224 1   
10225 7   
10226 3   
10227 8   
10228 1   
10229 10  
10230 5   
10231 9   
10232 78  
10233 7   
10234 5   
10235 9   
10236 7   
10237 10  
10238 1   
10239 60  
10240 1   
10241 9   
10242 7   
10243 6   
10244 4   
10245 10  
10246 4   
10247 3   
10248 2   
10249 7   
10250 5   
10251 3   
10252 10  
10253 95  
10254 9   
10255 5   
10256 10  
10257 4   
10258 2   
10259 4   
10260 1   
10261 5   
10262 1   
10263 8   
10264 3   
10265 3   
10266 8   
10267 10  
10268 9   
10269 8   
10270 1   
10271 5   
10272 7   
10273 6   
10274 1   
10275 4   
10276 5   
10277 8   
10278 2   
10279 3   
10280 8   
10281 10  
10282 73  
10283 6   
10284 10  
10285 10  
10286 2   
10287 10  
10288 6   
10289 6   
10290 7   
10291 6   
10292 1   
10293 5   
10294 7   
10295 1   
10296 70  
10297 7   
10298 3   
10299 6   
10300 5   
10301 10  
10302 5   
10303 9   
10304 9   
10305 3   
10306 9   
10307 8   
10308 7   
10309 8   
10310 7   
10311 94  
10312 4   
10313 8   
10314 10  
10315 2   
10316 9   
10317 4   
10318 8   
10319 1   
10320 94  
10321 5   
10322 5   
10323 2   
10324 3   
10325 7   
10326 5   
10327 94  
10328 1   
10329 8   
10330 3   
10331 10  
10332 1   
10333 4   
10334 4   
10335 9   
10336 9   
10337 5   
10338 7   
10339 6   
10340 7   
10341 9   
10342 1   
10343 3   
10344 3   
10345 6   
10346 6   
10347 9   
10348 4   
10349 1   
10350 2   
10351 9   
10352 3   
10353 1   
10354 2   
10355 7   
10356 10  
10357 10  
10358 8   
10359 60  
10360 4   
10361 5   
10362 2   
10363 4   
10364 6   
10365 1   
10366 9   
10367 7   
10368 9   
10369 6   
10370 4   
10371 6   
10372 9   
10373 8   
10374 9   
10375 3   
10376 9   
10377 1   
10378 9   
10379 5   
10380 8   
10381 4   
10382 3   
10383 6   
10384 7   
10385 3   
10386 1   
10387 8   
10388 6   
10389 9   
10390 78  
10391 5   
10392 80  
10393 9   
10394 9   
10395 5   
10396 6   
10397 4   
10398 10  
10399 8   
10400 10  
10401 5   
10402 82  
10403 62  
10404 6   
10405 3   
10406 6   
10407 3   
10408 9   
10409 8   
10410 9   
10411 2   
10412 1   
10413 1   
10414 6   
10415 5   
10416 7   
10417 2   
10418 6   
10419 6   
10420 8   
10421 2   
10422 3   
10423 5   
10424 9   
10425 4   
10426 3   
10427 7   
10428 7   
10429 3   
10430 6   
10431 10  
10432 9   
10433 5   
10434 6   
10435 9   
10436 4   
10437 3   
10438 8   
10439 6   
10440 1   
10441 79  
10442 9   
10443 4   
10444 5   
10445 4   
10446 2   
10447 10  
10448 4   
10449 10  
10450 8   
10451 9   
10452 9   
10453 1   
10454 7   
10455 9   
10456 6   
10457 5   
10458 9   
10459 9   
10460 10  
10461 1   
10462 6   
10463 1   
10464 10  
10465 4   
10466 7   
10467 9   
10468 3   
10469 4   
10470 1   
10471 80  
10472 1   
10473 83  
10474 6   
10475 1   
10476 94  
10477 10  
10478 6   
10479 2   
10480 5   
10481 5   
10482 10  
10483 2   
10484 8   
10485 4   
10486 5   
10487 5   
10488 7   
10489 7   
10490 4   
10491 5   
10492 7   
10493 7   
10494 8   
10495 6   
10496 1   
10497 9   
10498 3   
10499 2   
10500 6   
10501 6   
10502 4   
10503 10  
10504 9   
10505 3   
10506 8   
10507 6   
10508 5   
10509 5   
10510 5   
10511 5   
10512 3   
10513 3   
10514 1   
10515 2   
10516 4   
10517 1   
10518 3   
10519 1   
10520 10  
10521 8   
10522 3   
10523 9   
10524 4   
10525 5   
10526 6   
10527 7   
10528 3   
10529 10  
10530 5   
10531 8   
10532 3   
10533 7   
10534 9   
10535 4   
10536 4   
10537 6   
10538 7   
10539 7   
10540 4   
10541 10  
10542 7   
10543 58  
10544 4   
10545 10  
10546 7   
10547 5   
10548 52  
10549 4   
10550 9   
10551 5   
10552 6   
10553 9   
10554 9   
10555 1   
10556 4   
10557 4   
10558 8   
10559 8   
10560 2   
10561 3   
10562 3   
10563 10  
10564 68  
10565 2   
10566 95  
10567 3   
10568 2   
10569 5   
10570 6   
10571 8   
10572 7   
10573 9   
10574 8   
10575 10  
10576 1   
10577 10  
10578 8   
10579 6   
10580 2   
10581 8   
10582 10  
10583 4   
10584 10  
10585 8   
10586 8   
10587 10  
10588 3   
10589 1   
10590 5   
10591 3   
10592 7   
10593 8   
10594 6   
10595 10  
10596 1   
10597 3   
10598 6   
10599 78  
10600 3   
10601 7   
10602 2   
10603 8   
10604 2   
10605 10  
10606 78  
10607 9   
10608 10  
10609 10  
10610 9   
10611 5   
10612 1   
10613 7   
10614 3   
10615 5   
10616 9   
10617 8   
10618 6   
10619 7   
10620 2   
10621 10  
10622 2   
10623 10  
10624 4   
10625 8   
10626 4   
10627 90  
10628 3   
10629 8   
10630 8   
10631 3   
10632 5   
10633 7   
10634 4   
10635 2   
10636 6   
10637 6   
10638 9   
10639 3   
10640 10  
10641 9   
10642 9   
10643 6   
10644 1   
10645 87  
10646 2   
10647 8   
10648 8   
10649 10  
10650 9   
10651 3   
10652 1   
10653 6   
10654 8   
10655 5   
10656 2   
10657 10  
10658 6   
10659 9   
10660 3   
10661 4   
10662 6   
10663 7   
10664 8   
10665 4   
10666 4   
10667 2   
10668 6   
10669 9   
10670 8   
10671 5   
10672 2   
10673 6   
10674 1   
10675 5   
10676 9   
10677 4   
10678 9   
10679 4   
10680 9   
10681 73  
10682 9   
10683 8   
10684 1   
10685 2   
10686 6   
10687 6   
10688 8   
10689 8   
10690 3   
10691 8   
10692 6   
10693 3   
10694 4   
10695 70  
10696 64  
10697 2   
10698 7   
10699 7   
10700 74  
10701 3   
10702 1   
10703 2   
10704 10  
10705 7   
10706 2   
10707 10  
10708 5   
10709 4   
10710 8   
10711 8   
10712 4   
10713 3   
10714 1   
10715 8   
10716 5   
10717 3   
10718 2   
10719 10  
10720 4   
10721 7   
10722 2   
10723 10  
10724 1   
10725 8   
10726 1   
10727 5   
10728 6   
10729 8   
10730 10  
10731 8   
10732 5   
10733 9   
10734 5   
10735 10  
10736 6   
10737 3   
10738 99  
10739 3   
10740 8   
10741 9   
10742 1   
10743 10  
10744 6   
10745 5   
10746 3   
10747 92  
10748 83  
10749 1   
10750 2   
10751 9   
10752 6   
10753 3   
10754 88  
10755 6   
10756 2   
10757 9   
10758 1   
10759 3   
10760 5   
10761 8   
10762 2   
10763 2   
10764 2   
10765 2   
10766 9   
10767 5   
10768 9   
10769 8   
10770 10  
10771 8   
10772 9   
10773 6   
10774 2   
10775 7   
10776 7   
10777 10  
10778 8   
10779 8   
10780 3   
10781 3   
10782 3   
10783 10  
10784 10  
10785 7   
10786 6   
10787 1   
10788 5   
10789 1   
10790 9   
10791 1   
10792 7   
10793 3   
10794 6   
10795 5   
10796 4   
10797 8   
10798 4   
10799 53  
10800 2   
10801 2   
10802 2   
10803 5   
10804 1   
10805 4   
10806 10  
10807 5   
10808 6   
10809 4   
10810 5   
10811 2   
10812 8   
10813 7   
10814 4   
10815 4   
10816 7   
10817 6   
10818 9   
10819 7   
10820 8   
10821 3   
10822 4   
10823 1   
10824 7   
10825 7   
10826 8   
10827 9   
10828 5   
10829 10  
10830 1   
10831 8   
10832 2   
10833 79  
10834 62  
10835 2   
10836 6   
10837 8   
10838 1   
10839 3   
10840 10  
10841 5   
10842 84  
10843 8   
10844 8   
10845 91  
10846 3   
10847 8   
10848 10  
10849 3   
10850 92  
10851 7   
10852 1   
10853 3   
10854 10  
10855 3   
10856 6   
10857 3   
10858 86  
10859 2   
10860 6   
10861 4   
10862 3   
10863 1   
10864 1   
10865 6   
10866 5   
10867 10  
10868 8   
10869 8   
10870 10  
10871 1   
10872 7   
10873 8   
10874 5   
10875 2   
10876 2   
10877 2   
10878 5   
10879 4   
10880 10  
10881 8   
10882 8   
10883 3   
10884 5   
10885 4   
10886 6   
10887 8   
10888 5   
10889 9   
10890 3   
10891 6   
10892 10  
10893 4   
10894 10  
10895 10  
10896 9   
10897 6   
10898 2   
10899 5   
10900 94  
10901 5   
10902 10  
10903 10  
10904 88  
10905 6   
10906 6   
10907 2   
10908 8   
10909 5   
10910 8   
10911 3   
10912 10  
10913 1   
10914 2   
10915 1   
10916 9   
10917 7   
10918 1   
10919 3   
10920 8   
10921 4   
10922 6   
10923 9   
10924 6   
10925 3   
10926 8   
10927 1   
10928 97  
10929 10  
10930 5   
10931 3   
10932 70  
10933 1   
10934 1   
10935 6   
10936 6   
10937 5   
10938 6   
10939 9   
10940 1   
10941 1   
10942 10  
10943 8   
10944 2   
10945 5   
10946 88  
10947 9   
10948 1   
10949 9   
10950 10  
10951 6   
10952 5   
10953 8   
10954 6   
10955 2   
10956 8   
10957 2   
10958 4   
10959 5   
10960 2   
10961 3   
10962 10  
10963 6   
10964 5   
10965 5   
10966 4   
10967 7   
10968 9   
10969 7   
10970 9   
10971 7   
10972 8   
10973 61  
10974 2   
10975 9   
10976 8   
10977 2   
10978 7   
10979 1   
10980 63  
10981 8   
10982 2   
10983 8   
10984 2   
10985 4   
10986 9   
10987 63  
10988 4   
10989 2   
10990 3   
10991 9   
10992 9   
10993 4   
10994 9   
10995 4   
10996 2   
10997 8   
10998 2   
10999 4   
11000 53  
11001 7   
11002 7   
11003 5   
11004 4   
11005 2   
11006 5   
11007 10  
11008 9   
11009 1   
11010 6   
11011 6   
11012 4   
11013 9   
11014 6   
11015 6   
11016 9   
11017 9   
11018 4   
11019 1   
11020 80  
11021 8   
11022 1   
11023 10  
11024 8   
11025 55  
11026 3   
11027 2   
11028 6   
11029 5   
11030 8   
11031 5   
11032 4   
11033 4   
11034 8   
11035 10  
11036 1   
11037 4   
11038 2   
11039 3   
11040 4   
11041 1   
11042 5   
11043 10  
11044 9   
11045 8   
11046 1   
11047 7   
11048 74  
11049 5   
11050 9   
11051 5   
11052 3   
11053 9   
11054 75  
11055 5   
11056 5   
11057 8   
11058 5   
11059 2   
11060 2   
11061 9   
11062 8   
11063 7   
11064 9   
11065 8   
11066 7   
11067 7   
11068 10  
11069 8   
11070 7   
11071 5   
11072 4   
11073 10  
11074 10  
11075 3   
11076 7   
11077 10  
11078 8   
11079 6   
11080 7   
11081 5   
11082 6   
11083 4   
11084 2   
11085 4   
11086 7   
11087 9   
11088 8   
11089 1   
11090 7   
11091 4   
11092 9   
11093 5   
11094 2   
11095 9   
11096 6   
11097 4   
11098 3   
11099 10  
11100 3   
11101 3   
11102 6   
11103 2   
11104 5   
11105 3   
11106 8   
11107 6   
11108 6   
11109 9   
11110 4   
11111 9   
11112 5   
11113 2   
11114 9   
11115 10  
11116 5   
11117 5   
11118 3   
11119 5   
11120 7   
11121 6   
11122 2   
11123 3   
11124 5   
11125 8   
11126 10  
11127 5   
11128 5   
11129 9   
11130 10  
11131 5   
11132 5   
11133 1   
11134 2   
11135 7   
11136 7   
11137 5   
11138 3   
11139 5   
11140 6   
11141 3   
11142 2   
11143 7   
11144 2   
11145 3   
11146 9   
11147 6   
11148 7   
11149 4   
11150 6   
11151 1   
11152 4   
11153 2   
11154 5   
11155 3   
11156 5   
11157 6   
11158 3   
11159 1   
11160 98  
11161 5   
11162 9   
11163 6   
11164 5   
11165 5   
11166 95  
11167 5   
11168 10  
11169 6   
11170 9   
11171 1   
11172 8   
11173 9   
11174 84  
11175 9   
11176 9   
11177 9   
11178 61  
11179 5   
11180 6   
11181 1   
11182 10  
11183 6   
11184 4   
11185 5   
11186 9   
11187 8   
11188 98  
11189 80  
11190 2   
11191 9   
11192 9   
11193 3   
11194 2   
11195 2   
11196 1   
11197 8   
11198 4   
11199 7   
11200 10  
11201 5   
11202 4   
11203 2   
11204 4   
11205 4   
11206 8   
11207 8   
11208 6   
11209 10  
11210 1   
11211 8   
11212 5   
11213 5   
11214 5   
11215 2   
11216 8   
11217 10  
11218 7   
11219 1   
11220 9   
11221 3   
11222 3   
11223 2   
11224 6   
11225 4   
11226 2   
11227 9   
11228 10  
11229 1   
11230 1   
11231 2   
11232 2   
11233 6   
11234 7   
11235 80  
11236 2   
11237 1   
11238 7   
11239 5   
11240 2   
11241 2   
11242 9   
11243 7   
11244 6   
11245 9   
11246 9   
11247 1   
11248 10  
11249 5   
11250 5   
11251 2   
11252 62  
11253 6   
11254 3   
11255 86  
11256 1   
11257 7   
11258 1   
11259 71  
11260 5   
11261 6   
11262 6   
11263 2   
11264 8   
11265 6   
11266 1   
11267 1   
11268 1   
11269 6   
11270 5   
11271 9   
11272 6   
11273 7   
11274 64  
11275 10  
11276 1   
11277 3   
11278 1   
11279 9   
11280 79  
11281 3   
11282 2   
11283 4   
11284 4   
11285 2   
11286 1   
11287 9   
11288 3   
11289 1   
11290 4   
11291 5   
11292 2   
11293 9   
11294 8   
11295 9   
11296 6   
11297 7   
11298 4   
11299 6   
11300 8   
11301 5   
11302 7   
11303 3   
11304 6   
11305 10  
11306 62  
11307 4   
11308 10  
11309 10  
11310 8   
11311 3   
11312 9   
11313 3   
11314 2   
11315 3   
11316 6   
11317 7   
11318 6   
11319 9   
11320 10  
11321 7   
11322 7   
11323 2   
11324 2   
11325 10  
11326 9   
11327 8   
11328 10  
11329 6   
11330 9   
11331 2   
11332 7   
11333 6   
11334 1   
11335 1   
11336 8   
11337 3   
11338 4   
11339 8   
11340 7   
11341 8   
11342 1   
11343 1   
11344 8   
11345 2   
11346 3   
11347 10  
11348 1   
11349 95  
11350 9   
11351 1   
11352 5   
11353 10  
11354 3   
11355 8   
11356 1   
11357 10  
11358 9   
11359 6   
11360 8   
11361 5   
11362 5   
11363 8   
11364 1   
11365 3   
11366 4   
11367 3   
11368 7   
11369 5   
11370 1   
11371 2   
11372 89  
11373 9   
11374 4   
11375 2   
11376 8   
11377 6   
11378 6   
11379 10  
11380 7   
11381 8   
11382 2   
11383 6   
11384 9   
11385 1   
11386 7   
11387 3   
11388 7   
11389 7   
11390 9   
11391 4   
11392 1   
11393 7   
11394 2   
11395 62  
11396 90  
11397 1   
11398 8   
11399 3   
11400 3   
11401 4   
11402 7   
11403 4   
11404 9   
11405 1   
11406 10  
11407 3   
11408 2   
11409 5   
11410 8   
11411 10  
11412 3   
11413 2   
11414 4   
11415 5   
11416 4   
11417 1   
11418 5   
11419 3   
11420 5   
11421 89  
11422 2   
11423 2   
11424 10  
11425 7   
11426 3   
11427 3   
11428 2   
11429 8   
11430 9   
11431 2   
11432 4   
11433 8   
11434 6   
11435 7   
11436 5   
11437 1   
11438 3   
11439 5   
11440 9   
11441 3   
11442 10  
11443 10  
11444 5   
11445 7   
11446 2   
11447 8   
11448 1   
11449 8   
11450 2   
11451 1   
11452 1   
11453 5   
11454 4   
11455 4   
11456 10  
11457 6   
11458 5   
11459 2   
11460 6   
11461 7   
11462 10  
11463 7   
11464 4   
11465 4   
11466 9   
11467 5   
11468 5   
11469 3   
11470 5   
11471 4   
11472 9   
11473 7   
11474 3   
11475 90  
11476 4   
11477 8   
11478 3   
11479 2   
11480 2   
11481 4   
11482 10  
11483 7   
11484 7   
11485 8   
11486 95  
11487 8   
11488 1   
11489 3   
11490 9   
11491 4   
11492 1   
11493 2   
11494 4   
11495 2   
11496 10  
11497 5   
11498 3   
11499 10  
11500 4   
11501 8   
11502 3   
11503 10  
11504 6   
11505 7   
11506 76  
11507 6   
11508 1   
11509 8   
11510 10  
11511 8   
11512 6   
11513 1   
11514 9   
11515 3   
11516 8   
11517 1   
11518 9   
11519 5   
11520 2   
11521 8   
11522 9   
11523 9   
11524 1   
11525 8   
11526 4   
11527 7   
11528 4   
11529 1   
11530 5   
11531 2   
11532 1   
11533 7   
11534 71  
11535 10  
11536 10  
11537 6   
11538 3   
11539 7   
11540 1   
11541 7   
11542 10  
11543 63  
11544 10  
11545 6   
11546 10  
11547 3   
11548 4   
11549 3   
11550 58  
11551 2   
11552 5   
11553 4   
11554 8   
11555 8   
11556 1   
11557 10  
11558 6   
11559 4   
11560 2   
11561 8   
11562 8   
11563 3   
11564 7   
11565 8   
11566 2   
11567 4   
11568 4   
11569 2   
11570 4   
11571 1   
11572 2   
11573 10  
11574 10  
11575 8   
11576 6   
11577 3   
11578 1   
11579 2   
11580 7   
11581 9   
11582 8   
11583 3   
11584 5   
11585 8   
11586 4   
11587 10  
11588 1   
11589 1   
11590 6   
11591 4   
11592 5   
11593 4   
11594 1   
11595 10  
11596 8   
11597 5   
11598 1   
11599 7   
11600 4   
11601 5   
11602 9   
11603 4   
11604 8   
11605 3   
11606 9   
11607 1   
11608 3   
11609 6   
11610 7   
11611 5   
11612 8   
11613 3   
11614 10  
11615 4   
11616 10  
11617 3   
11618 52  
11619 4   
11620 1   
11621 3   
11622 2   
11623 3   
11624 3   
11625 5   
11626 7   
11627 9   
11628 7   
11629 8   
11630 9   
11631 9   
11632 10  
11633 2   
11634 2   
11635 9   
11636 9   
11637 7   
11638 3   
11639 9   
11640 9   
11641 5   
11642 10  
11643 5   
11644 2   
11645 5   
11646 5   
11647 10  
11648 3   
11649 4   
11650 10  
11651 1   
11652 4   
11653 8   
11654 6   
11655 7   
11656 10  
11657 1   
11658 3   
11659 88  
11660 99  
11661 4   
11662 2   
11663 3   
11664 8   
11665 2   
11666 5   
11667 50  
11668 3   
11669 2   
11670 1   
11671 78  
11672 6   
11673 9   
11674 8   
11675 2   
11676 2   
11677 4   
11678 2   
11679 9   
11680 4   
11681 5   
11682 4   
11683 87  
11684 8   
11685 5   
11686 8   
11687 6   
11688 62  
11689 58  
11690 3   
11691 3   
11692 6   
11693 1   
11694 5   
11695 3   
11696 8   
11697 6   
11698 7   
11699 2   
11700 8   
11701 9   
11702 6   
11703 5   
11704 2   
11705 5   
11706 8   
11707 9   
11708 8   
11709 2   
11710 2   
11711 5   
11712 6   
11713 3   
11714 10  
11715 2   
11716 8   
11717 1   
11718 1   
11719 9   
11720 73  
11721 5   
11722 86  
11723 2   
11724 4   
11725 7   
11726 10  
11727 4   
11728 10  
11729 4   
11730 10  
11731 3   
11732 5   
11733 9   
11734 6   
11735 9   
11736 1   
11737 63  
11738 7   
11739 5   
11740 8   
11741 5   
11742 2   
11743 7   
11744 6   
11745 8   
11746 8   
11747 70  
11748 7   
11749 7   
11750 2   
11751 7   
11752 2   
11753 81  
11754 2   
11755 4   
11756 8   
11757 5   
11758 7   
11759 2   
11760 82  
11761 6   
11762 10  
11763 8   
11764 3   
11765 8   
11766 3   
11767 6   
11768 4   
11769 6   
11770 3   
11771 62  
11772 2   
11773 5   
11774 6   
11775 4   
11776 6   
11777 6   
11778 10  
11779 4   
11780 1   
11781 99  
11782 6   
11783 9   
11784 9   
11785 4   
11786 1   
11787 9   
11788 10  
11789 7   
11790 2   
11791 1   
11792 10  
11793 5   
11794 10  
11795 5   
11796 10  
11797 6   
11798 8   
11799 5   
11800 4   
11801 3   
11802 10  
11803 8   
11804 7   
11805 2   
11806 7   
11807 9   
11808 97  
11809 5   
11810 9   
11811 6   
11812 8   
11813 3   
11814 9   
11815 2   
11816 9   
11817 4   
11818 6   
11819 58  
11820 4   
11821 8   
11822 6   
11823 4   
11824 1   
11825 5   
11826 1   
11827 4   
11828 4   
11829 87  
11830 4   
11831 2   
11832 3   
11833 9   
11834 10  
11835 2   
11836 6   
11837 6   
11838 55  
11839 3   
11840 4   
11841 3   
11842 4   
11843 5   
11844 7   
11845 4   
11846 1   
11847 8   
11848 10  
11849 5   
11850 6   
11851 2   
11852 85  
11853 6   
11854 4   
11855 2   
11856 8   
11857 6   
11858 8   
11859 10  
11860 9   
11861 9   
11862 7   
11863 7   
11864 9   
11865 10  
11866 10  
11867 6   
11868 7   
11869 3   
11870 5   
11871 4   
11872 4   
11873 5   
11874 1   
11875 9   
11876 1   
11877 5   
11878 8   
11879 3   
11880 3   
11881 8   
11882 2   
11883 10  
11884 97  
11885 3   
11886 7   
11887 4   
11888 2   
11889 2   
11890 10  
11891 1   
11892 7   
11893 2   
11894 9   
11895 51  
11896 2   
11897 1   
11898 7   
11899 4   
11900 4   
11901 4   
11902 2   
11903 7   
11904 10  
11905 4   
11906 8   
11907 2   
11908 1   
11909 2   
11910 2   
11911 4   
11912 5   
11913 2   
11914 9   
11915 9   
11916 10  
11917 85  
11918 8   
11919 4   
11920 7   
11921 2   
11922 8   
11923 83  
11924 8   
11925 1   
11926 98  
11927 9   
11928 1   
11929 8   
11930 2   
11931 53  
11932 8   
11933 1   
11934 56  
11935 8   
11936 9   
11937 2   
11938 6   
11939 6   
11940 3   
11941 6   
11942 1   
11943 1   
11944 4   
11945 4   
11946 10  
11947 8   
11948 5   
11949 70  
11950 1   
11951 10  
11952 9   
11953 6   
11954 10  
11955 3   
11956 10  
11957 3   
11958 8   
11959 7   
11960 8   
11961 80  
11962 5   
11963 2   
11964 9   
11965 3   
11966 6   
11967 10  
11968 1   
11969 7   
11970 4   
11971 6   
11972 3   
11973 68  
11974 9   
11975 7   
11976 92  
11977 3   
11978 10  
11979 9   
11980 1   
11981 10  
11982 7   
11983 4   
11984 7   
11985 8   
11986 7   
11987 9   
11988 9   
11989 4   
11990 71  
11991 4   
11992 4   
11993 7   
11994 2   
11995 7   
11996 6   
11997 7   
11998 10  
11999 4   
12000 6   
12001 5   
12002 8   
12003 1   
12004 2   
12005 3   
12006 9   
12007 5   
12008 5   
12009 3   
12010 7   
12011 7   
12012 97  
12013 88  
12014 1   
12015 4   
12016 1   
12017 99  
12018 2   
12019 1   
12020 2   
12021 7   
12022 7   
12023 9   
12024 8   
12025 2   
12026 57  
12027 5   
12028 1   
12029 9   
12030 2   
12031 3   
12032 6   
12033 6   
12034 64  
12035 8   
12036 10  
12037 8   
12038 8   
12039 9   
12040 4   
12041 10  
12042 4   
12043 6   
12044 4   
12045 9   
12046 8   
12047 10  
12048 5   
12049 10  
12050 1   
12051 3   
12052 8   
12053 8   
12054 7   
12055 10  
12056 10  
12057 69  
12058 3   
12059 7   
12060 8   
12061 7   
12062 5   
12063 7   
12064 10  
12065 8   
12066 4   
12067 3   
12068 1   
12069 8   
12070 9   
12071 2   
12072 2   
12073 7   
12074 9   
12075 6   
12076 4   
12077 6   
12078 9   
12079 2   
12080 5   
12081 7   
12082 9   
12083 5   
12084 5   
12085 7   
12086 10  
12087 10  
12088 1   
12089 4   
12090 4   
12091 9   
12092 1   
12093 10  
12094 2   
12095 4   
12096 9   
12097 8   
12098 5   
12099 3   
12100 10  
12101 10  
12102 8   
12103 9   
12104 10  
12105 9   
12106 84  
12107 2   
12108 7   
12109 3   
12110 8   
12111 7   
12112 7   
12113 10  
12114 3   
12115 2   
12116 7   
12117 10  
12118 1   
12119 10  
12120 6   
12121 7   
12122 1   
12123 2   
12124 4   
12125 2   
12126 1   
12127 1   
12128 79  
12129 5   
12130 9   
12131 5   
12132 4   
12133 2   
12134 9   
12135 1   
12136 10  
12137 3   
12138 5   
12139 1   
12140 56  
12141 10  
12142 5   
12143 6   
12144 3   
12145 72  
12146 7   
12147 8   
12148 7   
12149 8   
12150 5   
12151 1   
12152 6   
12153 7   
12154 1   
12155 3   
12156 8   
12157 6   
12158 2   
12159 1   
12160 2   
12161 9   
12162 6   
12163 4   
12164 8   
12165 59  
12166 9   
12167 10  
12168 9   
12169 8   
12170 1   
12171 2   
12172 3   
12173 1   
12174 5   
12175 2   
12176 7   
12177 5   
12178 10  
12179 4   
12180 3   
12181 8   
12182 8   
12183 3   
12184 5   
12185 5   
12186 7   
12187 1   
12188 3   
12189 1   
12190 7   
12191 8   
12192 5   
12193 8   
12194 7   
12195 94  
12196 1   
12197 5   
12198 7   
12199 7   
12200 10  
12201 4   
12202 1   
12203 2   
12204 2   
12205 1   
12206 8   
12207 5   
12208 1   
12209 6   
12210 3   
12211 7   
12212 4   
12213 2   
12214 5   
12215 89  
12216 1   
12217 7   
12218 7   
12219 63  
12220 5   
12221 3   
12222 8   
12223 3   
12224 6   
12225 9   
12226 62  
12227 7   
12228 8   
12229 8   
12230 4   
12231 3   
12232 8   
12233 10  
12234 10  
12235 5   
12236 5   
12237 8   
12238 9   
12239 2   
12240 7   
12241 9   
12242 8   
12243 9   
12244 8   
12245 9   
12246 2   
12247 7   
12248 5   
12249 5   
12250 7   
12251 6   
12252 1   
12253 2   
12254 7   
12255 7   
12256 3   
12257 4   
12258 2   
12259 4   
12260 4   
12261 3   
12262 2   
12263 5   
12264 8   
12265 7   
12266 9   
12267 7   
12268 6   
12269 82  
12270 8   
12271 9   
12272 8   
12273 1   
12274 5   
12275 5   
12276 6   
12277 6   
12278 5   
12279 8   
12280 91  
12281 6   
12282 7   
12283 3   
12284 8   
12285 10  
12286 1   
12287 96  
12288 6   
12289 3   
12290 6   
12291 10  
12292 3   
12293 7   
12294 10  
12295 1   
12296 2   
12297 4   
12298 1   
12299 3   
12300 51  
12301 7   
12302 10  
12303 8   
12304 10  
12305 3   
12306 10  
12307 7   
12308 1   
12309 8   
12310 3   
12311 6   
12312 4   
12313 2   
12314 5   
12315 9   
12316 7   
12317 1   
12318 10  
12319 8   
12320 6   
12321 10  
12322 4   
12323 9   
12324 3   
12325 5   
12326 3   
12327 9   
12328 3   
12329 1   
12330 4   
12331 7   
12332 8   
12333 4   
12334 9   
12335 7   
12336 2   
12337 6   
12338 57  
12339 4   
12340 5   
12341 6   
12342 8   
12343 1   
12344 3   
12345 2   
12346 7   
12347 7   
12348 1   
12349 3   
12350 2   
12351 10  
12352 8   
12353 8   
12354 5   
12355 6   
12356 8   
12357 7   
12358 2   
12359 71  
12360 2   
12361 2   
12362 1   
12363 6   
12364 9   
12365 10  
12366 4   
12367 1   
12368 5   
12369 6   
12370 3   
12371 1   
12372 7   
12373 1   
12374 3   
12375 5   
12376 2   
12377 2   
12378 6   
12379 10  
12380 2   
12381 7   
12382 7   
12383 4   
12384 7   
12385 6   
12386 8   
12387 1   
12388 2   
12389 6   
12390 5   
12391 6   
12392 7   
12393 6   
12394 1   
12395 7   
12396 7   
12397 9   
12398 5   
12399 8   
12400 5   
12401 10  
12402 3   
12403 8   
12404 7   
12405 97  
12406 3   
12407 1   
12408 8   
12409 6   
12410 10  
12411 2   
12412 5   
12413 9   
12414 9   
12415 10  
12416 5   
12417 3   
12418 2   
12419 5   
12420 76  
12421 7   
12422 2   
12423 5   
12424 1   
12425 7   
12426 84  
12427 9   
12428 2   
12429 8   
12430 1   
12431 9   
12432 9   
12433 7   
12434 9   
12435 64  
12436 6   
12437 9   
12438 2   
12439 5   
12440 8   
12441 9   
12442 10  
12443 5   
12444 6   
12445 4   
12446 78  
12447 3   
12448 2   
12449 6   
12450 8   
12451 9   
12452 10  
12453 3   
12454 3   
12455 10  
12456 7   
12457 1   
12458 5   
12459 8   
12460 1   
12461 4   
12462 7   
12463 50  
12464 4   
12465 9   
12466 60  
12467 10  
12468 8   
12469 6   
12470 8   
12471 1   
12472 9   
12473 5   
12474 10  
12475 5   
12476 7   
12477 3   
12478 2   
12479 3   
12480 75  
12481 10  
12482 5   
12483 8   
12484 2   
12485 7   
12486 2   
12487 8   
12488 8   
12489 1   
12490 3   
12491 3   
12492 93  
12493 8   
12494 74  
12495 4   
12496 8   
12497 92  
12498 9   
12499 1   
12500 80  
12501 4   
12502 2   
12503 3   
12504 8   
12505 3   
12506 9   
12507 10  
12508 5   
12509 2   
12510 9   
12511 2   
12512 5   
12513 6   
12514 7   
12515 8   
12516 8   
12517 61  
12518 2   
12519 3   
12520 9   
12521 4   
12522 7   
12523 7   
12524 8   
12525 3   
12526 6   
12527 2   
12528 7   
12529 9   
12530 1   
12531 2   
12532 3   
12533 10  
12534 1   
12535 2   
12536 6   
12537 2   
12538 1   
12539 4   
12540 5   
12541 9   
12542 9   
12543 9   
12544 9   
12545 10  
12546 2   
12547 6   
12548 10  
12549 1   
12550 7   
12551 4   
12552 9   
12553 6   
12554 3   
12555 6   
12556 8   
12557 1   
12558 6   
12559 10  
12560 3   
12561 8   
12562 3   
12563 4   
12564 6   
12565 5   
12566 9   
12567 4   
12568 7   
12569 3   
12570 6   
12571 8   
12572 3   
12573 80  
12574 8   
12575 1   
12576 1   
12577 7   
12578 5   
12579 4   
12580 3   
12581 4   
12582 9   
12583 3   
12584 4   
12585 7   
12586 4   
12587 6   
12588 10  
12589 1   
12590 3   
12591 9   
12592 6   
12593 8   
12594 8   
12595 3   
12596 9   
12597 4   
12598 7   
12599 8   
12600 1   
12601 7   
12602 1   
12603 9   
12604 6   
12605 6   
12606 2   
12607 10  
12608 6   
12609 1   
12610 6   
12611 9   
12612 5   
12613 3   
12614 7   
12615 3   
12616 10  
12617 10  
12618 4   
12619 3   
12620 3   
12621 10  
12622 2   
12623 1   
12624 9   
12625 3   
12626 3   
12627 7   
12628 2   
12629 8   
12630 4   
12631 8   
12632 4   
12633 6   
12634 10  
12635 3   
12636 9   
12637 9   
12638 1   
12639 2   
12640 7   
12641 3   
12642 7   
12643 2   
12644 10  
12645 8   
12646 6   
12647 6   
12648 7   
12649 8   
12650 8   
12651 2   
12652 10  
12653 2   
12654 8   
12655 10  
12656 4   
12657 2   
12658 6   
12659 4   
12660 2   
12661 8   
12662 2   
12663 3   
12664 8   
12665 2   
12666 7   
12667 6   
12668 4   
12669 3   
12670 9   
12671 9   
12672 74  
12673 10  
12674 73  
12675 1   
12676 5   
12677 3   
12678 4   
12679 4   
12680 75  
12681 7   
12682 8   
12683 7   
12684 2   
12685 10  
12686 10  
12687 3   
12688 6   
12689 1   
12690 10  
12691 2   
12692 7   
12693 4   
12694 1   
12695 5   
12696 8   
12697 8   
12698 6   
12699 4   
12700 1   
12701 7   
12702 5   
12703 6   
12704 5   
12705 6   
12706 3   
12707 6   
12708 10  
12709 3   
12710 4   
12711 4   
12712 10  
12713 82  
12714 1   
12715 61  
12716 1   
12717 10  
12718 5   
12719 6   
12720 7   
12721 3   
12722 2   
12723 5   
12724 76  
12725 2   
12726 6   
12727 1   
12728 3   
12729 10  
12730 1   
12731 5   
12732 7   
12733 8   
12734 2   
12735 98  
12736 9   
12737 1   
12738 3   
12739 6   
12740 3   
12741 10  
12742 9   
12743 1   
12744 3   
12745 5   
12746 5   
12747 8   
12748 7   
12749 5   
12750 7   
12751 2   
12752 2   
12753 64  
12754 100 
12755 9   
12756 2   
12757 2   
12758 8   
12759 10  
12760 6   
12761 7   
12762 5   
12763 3   
12764 8   
12765 1   
12766 7   
12767 78  
12768 6   
12769 6   
12770 4   
12771 72  
12772 10  
12773 7   
12774 4   
12775 4   
12776 1   
12777 6   
12778 6   
12779 2   
12780 3   
12781 7   
12782 3   
12783 2   
12784 10  
12785 10  
12786 3   
12787 10  
12788 10  
12789 2   
12790 8   
12791 10  
12792 4   
12793 80  
12794 10  
12795 9   
12796 8   
12797 55  
12798 5   
12799 5   
12800 4   
12801 6   
12802 62  
12803 6   
12804 1   
12805 6   
12806 8   
12807 6   
12808 1   
12809 58  
12810 8   
12811 67  
12812 10  
12813 73  
12814 1   
12815 10  
12816 5   
12817 9   
12818 8   
12819 96  
12820 9   
12821 8   
12822 2   
12823 3   
12824 7   
12825 6   
12826 10  
12827 3   
12828 1   
12829 10  
12830 7   
12831 1   
12832 3   
12833 9   
12834 6   
12835 1   
12836 8   
12837 5   
12838 5   
12839 2   
12840 2   
12841 5   
12842 8   
12843 8   
12844 8   
12845 5   
12846 8   
12847 66  
12848 10  
12849 8   
12850 10  
12851 6   
12852 8   
12853 6   
12854 2   
12855 1   
12856 1   
12857 10  
12858 98  
12859 2   
12860 4   
12861 91  
12862 9   
12863 7   
12864 7   
12865 5   
12866 2   
12867 10  
12868 2   
12869 6   
12870 5   
12871 9   
12872 2   
12873 6   
12874 10  
12875 2   
12876 5   
12877 9   
12878 8   
12879 7   
12880 3   
12881 10  
12882 10  
12883 2   
12884 4   
12885 4   
12886 4   
12887 8   
12888 8   
12889 7   
12890 8   
12891 4   
12892 1   
12893 2   
12894 7   
12895 3   
12896 6   
12897 9   
12898 2   
12899 5   
12900 10  
12901 4   
12902 8   
12903 9   
12904 7   
12905 4   
12906 1   
12907 3   
12908 7   
12909 9   
12910 1   
12911 5   
12912 62  
12913 8   
12914 7   
12915 10  
12916 2   
12917 5   
12918 7   
12919 2   
12920 53  
12921 2   
12922 10  
12923 7   
12924 7   
12925 6   
12926 9   
12927 8   
12928 8   
12929 3   
12930 58  
12931 7   
12932 2   
12933 6   
12934 1   
12935 9   
12936 1   
12937 2   
12938 4   
12939 5   
12940 7   
12941 7   
12942 8   
12943 10  
12944 9   
12945 4   
12946 8   
12947 6   
12948 8   
12949 6   
12950 8   
12951 1   
12952 2   
12953 8   
12954 5   
12955 5   
12956 4   
12957 4   
12958 8   
12959 7   
12960 5   
12961 84  
12962 1   
12963 5   
12964 8   
12965 2   
12966 4   
12967 2   
12968 7   
12969 5   
12970 7   
12971 5   
12972 8   
12973 4   
12974 7   
12975 1   
12976 10  
12977 2   
12978 3   
12979 4   
12980 1   
12981 7   
12982 3   
12983 5   
12984 3   
12985 5   
12986 5   
12987 1   
12988 7   
12989 89  
12990 3   
12991 74  
12992 5   
12993 9   
12994 7   
12995 9   
12996 10  
12997 8   
12998 10  
12999 5   
13000 61  
13001 3   
13002 2   
13003 4   
13004 1   
13005 8   
13006 4   
13007 1   
13008 80  
13009 9   
13010 7   
13011 4   
13012 6   
13013 7   
13014 6   
13015 6   
13016 6   
13017 10  
13018 5   
13019 9   
13020 3   
13021 3   
13022 2   
13023 4   
13024 4   
13025 6   
13026 6   
13027 6   
13028 10  
13029 6   
13030 9   
13031 4   
13032 6   
13033 5   
13034 7   
13035 5   
13036 6   
13037 1   
13038 2   
13039 8   
13040 7   
13041 3   
13042 7   
13043 9   
13044 7   
13045 7   
13046 7   
13047 7   
13048 3   
13049 1   
13050 7   
13051 4   
13052 4   
13053 75  
13054 10  
13055 2   
13056 5   
13057 9   
13058 2   
13059 3   
13060 3   
13061 3   
13062 3   
13063 2   
13064 10  
13065 5   
13066 7   
13067 10  
13068 93  
13069 5   
13070 1   
13071 2   
13072 10  
13073 4   
13074 2   
13075 6   
13076 1   
13077 7   
13078 2   
13079 9   
13080 4   
13081 4   
13082 8   
13083 1   
13084 9   
13085 8   
13086 3   
13087 2   
13088 3   
13089 1   
13090 5   
13091 5   
13092 1   
13093 10  
13094 4   
13095 10  
13096 1   
13097 9   
13098 51  
13099 10  
13100 10  
13101 2   
13102 8   
13103 8   
13104 4   
13105 9   
13106 8   
13107 10  
13108 5   
13109 1   
13110 6   
13111 1   
13112 4   
13113 7   
13114 2   
13115 7   
13116 1   
13117 7   
13118 83  
13119 5   
13120 8   
13121 10  
13122 10  
13123 10  
13124 2   
13125 5   
13126 2   
13127 5   
13128 8   
13129 6   
13130 6   
13131 7   
13132 4   
13133 1   
13134 4   
13135 4   
13136 6   
13137 6   
13138 3   
13139 2   
13140 79  
13141 10  
13142 66  
13143 9   
13144 10  
13145 8   
13146 7   
13147 3   
13148 5   
13149 5   
13150 4   
13151 6   
13152 2   
13153 5   
13154 4   
13155 93  
13156 3   
13157 7   
13158 1   
13159 7   
13160 7   
13161 4   
13162 7   
13163 7   
13164 7   
13165 6   
13166 2   
13167 8   
13168 1   
13169 8   
13170 2   
13171 2   
13172 5   
13173 1   
13174 10  
13175 3   
13176 6   
13177 76  
13178 59  
13179 67  
13180 7   
13181 9   
13182 3   
13183 2   
13184 5   
13185 9   
13186 6   
13187 5   
13188 4   
13189 8   
13190 5   
13191 2   
13192 7   
13193 10  
13194 4   
13195 1   
13196 10  
13197 4   
13198 3   
13199 3   
13200 3   
13201 3   
13202 10  
13203 8   
13204 10  
13205 10  
13206 2   
13207 6   
13208 3   
13209 10  
13210 7   
13211 7   
13212 66  
13213 1   
13214 8   
13215 8   
13216 10  
13217 4   
13218 9   
13219 9   
13220 5   
13221 1   
13222 1   
13223 5   
13224 10  
13225 4   
13226 7   
13227 3   
13228 2   
13229 10  
13230 4   
13231 6   
13232 10  
13233 8   
13234 4   
13235 7   
13236 5   
13237 5   
13238 8   
13239 7   
13240 10  
13241 8   
13242 8   
13243 8   
13244 6   
13245 10  
13246 4   
13247 3   
13248 8   
13249 3   
13250 3   
13251 92  
13252 9   
13253 4   
13254 4   
13255 2   
13256 10  
13257 1   
13258 4   
13259 7   
13260 7   
13261 9   
13262 4   
13263 5   
13264 9   
13265 9   
13266 7   
13267 6   
13268 10  
13269 5   
13270 4   
13271 6   
13272 7   
13273 61  
13274 8   
13275 7   
13276 2   
13277 1   
13278 1   
13279 1   
13280 2   
13281 9   
13282 7   
13283 8   
13284 7   
13285 9   
13286 6   
13287 7   
13288 9   
13289 4   
13290 10  
13291 3   
13292 1   
13293 3   
13294 4   
13295 10  
13296 9   
13297 8   
13298 10  
13299 3   
13300 68  
13301 6   
13302 2   
13303 2   
13304 1   
13305 1   
13306 4   
13307 4   
13308 7   
13309 8   
13310 7   
13311 2   
13312 4   
13313 6   
13314 9   
13315 4   
13316 10  
13317 7   
13318 3   
13319 4   
13320 4   
13321 5   
13322 6   
13323 3   
13324 3   
13325 4   
13326 9   
13327 8   
13328 2   
13329 4   
13330 8   
13331 4   
13332 84  
13333 7   
13334 6   
13335 4   
13336 5   
13337 8   
13338 10  
13339 51  
13340 8   
13341 7   
13342 9   
13343 8   
13344 9   
13345 10  
13346 6   
13347 3   
13348 3   
13349 2   
13350 4   
13351 9   
13352 10  
13353 2   
13354 9   
13355 9   
13356 6   
13357 6   
13358 6   
13359 7   
13360 9   
13361 7   
13362 1   
13363 2   
13364 9   
13365 5   
13366 1   
13367 3   
13368 5   
13369 5   
13370 6   
13371 4   
13372 10  
13373 10  
13374 5   
13375 3   
13376 3   
13377 5   
13378 3   
13379 9   
13380 9   
13381 10  
13382 7   
13383 8   
13384 10  
13385 7   
13386 6   
13387 9   
13388 10  
13389 5   
13390 4   
13391 4   
13392 7   
13393 1   
13394 6   
13395 4   
13396 4   
13397 5   
13398 10  
13399 7   
13400 2   
13401 8   
13402 10  
13403 8   
13404 100 
13405 2   
13406 3   
13407 6   
13408 5   
13409 6   
13410 2   
13411 1   
13412 2   
13413 7   
13414 8   
13415 1   
13416 10  
13417 8   
13418 1   
13419 5   
13420 2   
13421 3   
13422 9   
13423 1   
13424 9   
13425 4   
13426 4   
13427 6   
13428 10  
13429 7   
13430 2   
13431 2   
13432 5   
13433 10  
13434 2   
13435 7   
13436 7   
13437 8   
13438 9   
13439 10  
13440 9   
13441 1   
13442 8   
13443 1   
13444 2   
13445 9   
13446 1   
13447 10  
13448 9   
13449 1   
13450 8   
13451 4   
13452 5   
13453 2   
13454 10  
13455 1   
13456 4   
13457 2   
13458 3   
13459 6   
13460 7   
13461 8   
13462 2   
13463 10  
13464 4   
13465 3   
13466 3   
13467 1   
13468 3   
13469 92  
13470 9   
13471 2   
13472 7   
13473 9   
13474 2   
13475 8   
13476 6   
13477 10  
13478 4   
13479 2   
13480 1   
13481 9   
13482 4   
13483 9   
13484 98  
13485 7   
13486 6   
13487 2   
13488 1   
13489 97  
13490 9   
13491 6   
13492 5   
13493 3   
13494 2   
13495 96  
13496 3   
13497 3   
13498 1   
13499 10  
13500 10  
13501 7   
13502 2   
13503 4   
13504 8   
13505 2   
13506 10  
13507 5   
13508 6   
13509 10  
13510 1   
13511 2   
13512 3   
13513 2   
13514 1   
13515 10  
13516 10  
13517 1   
13518 6   
13519 10  
13520 1   
13521 1   
13522 3   
13523 1   
13524 5   
13525 9   
13526 7   
13527 4   
13528 50  
13529 6   
13530 5   
13531 6   
13532 9   
13533 10  
13534 3   
13535 7   
13536 9   
13537 4   
13538 5   
13539 90  
13540 5   
13541 7   
13542 7   
13543 8   
13544 7   
13545 1   
13546 8   
13547 7   
13548 8   
13549 8   
13550 5   
13551 5   
13552 6   
13553 1   
13554 4   
13555 65  
13556 5   
13557 9   
13558 5   
13559 10  
13560 1   
13561 8   
13562 4   
13563 5   
13564 1   
13565 4   
13566 10  
13567 10  
13568 2   
13569 1   
13570 2   
13571 5   
13572 10  
13573 8   
13574 3   
13575 5   
13576 2   
13577 5   
13578 1   
13579 1   
13580 3   
13581 7   
13582 1   
13583 5   
13584 7   
13585 5   
13586 10  
13587 3   
13588 7   
13589 2   
13590 6   
13591 10  
13592 10  
13593 10  
13594 2   
13595 10  
13596 6   
13597 6   
13598 9   
13599 9   
13600 3   
13601 5   
13602 4   
13603 9   
13604 2   
13605 2   
13606 4   
13607 6   
13608 3   
13609 3   
13610 6   
13611 10  
13612 75  
13613 4   
13614 3   
13615 9   
13616 2   
13617 2   
13618 3   
13619 9   
13620 7   
13621 9   
13622 1   
13623 5   
13624 1   
13625 7   
13626 2   
13627 9   
13628 5   
13629 9   
13630 10  
13631 6   
13632 1   
13633 6   
13634 3   
13635 9   
13636 4   
13637 1   
13638 9   
13639 8   
13640 6   
13641 4   
13642 5   
13643 9   
13644 5   
13645 8   
13646 5   
13647 3   
13648 1   
13649 1   
13650 7   
13651 4   
13652 3   
13653 10  
13654 5   
13655 6   
13656 7   
13657 8   
13658 1   
13659 1   
13660 9   
13661 1   
13662 9   
13663 5   
13664 1   
13665 3   
13666 2   
13667 5   
13668 6   
13669 1   
13670 10  
13671 4   
13672 5   
13673 9   
13674 8   
13675 7   
13676 9   
13677 6   
13678 77  
13679 80  
13680 8   
13681 1   
13682 6   
13683 6   
13684 4   
13685 2   
13686 1   
13687 6   
13688 10  
13689 5   
13690 6   
13691 3   
13692 1   
13693 10  
13694 1   
13695 1   
13696 3   
13697 4   
13698 3   
13699 1   
13700 7   
13701 5   
13702 2   
13703 5   
13704 9   
13705 1   
13706 1   
13707 6   
13708 10  
13709 6   
13710 4   
13711 10  
13712 9   
13713 1   
13714 8   
13715 2   
13716 8   
13717 5   
13718 5   
13719 10  
13720 3   
13721 4   
13722 6   
13723 3   
13724 1   
13725 7   
13726 2   
13727 1   
13728 9   
13729 4   
13730 8   
13731 3   
13732 4   
13733 5   
13734 7   
13735 4   
13736 7   
13737 1   
13738 98  
13739 1   
13740 3   
13741 2   
13742 3   
13743 6   
13744 2   
13745 9   
13746 10  
13747 6   
13748 6   
13749 9   
13750 6   
13751 5   
13752 4   
13753 5   
13754 9   
13755 8   
13756 1   
13757 6   
13758 7   
13759 1   
13760 7   
13761 9   
13762 3   
13763 5   
13764 7   
13765 3   
13766 5   
13767 6   
13768 85  
13769 4   
13770 8   
13771 7   
13772 7   
13773 3   
13774 7   
13775 1   
13776 10  
13777 2   
13778 2   
13779 4   
13780 1   
13781 3   
13782 9   
13783 6   
13784 6   
13785 8   
13786 8   
13787 1   
13788 4   
13789 8   
13790 50  
13791 9   
13792 8   
13793 4   
13794 63  
13795 6   
13796 50  
13797 6   
13798 4   
13799 3   
13800 63  
13801 9   
13802 10  
13803 6   
13804 7   
13805 10  
13806 8   
13807 77  
13808 5   
13809 7   
13810 9   
13811 79  
13812 5   
13813 3   
13814 4   
13815 4   
13816 7   
13817 10  
13818 5   
13819 3   
13820 3   
13821 2   
13822 75  
13823 9   
13824 3   
13825 3   
13826 9   
13827 2   
13828 1   
13829 3   
13830 10  
13831 5   
13832 8   
13833 9   
13834 4   
13835 98  
13836 78  
13837 9   
13838 64  
13839 6   
13840 9   
13841 10  
13842 52  
13843 5   
13844 9   
13845 10  
13846 10  
13847 5   
13848 9   
13849 5   
13850 4   
13851 6   
13852 10  
13853 7   
13854 8   
13855 4   
13856 6   
13857 6   
13858 8   
13859 3   
13860 4   
13861 6   
13862 8   
13863 7   
13864 2   
13865 6   
13866 9   
13867 4   
13868 10  
13869 1   
13870 2   
13871 10  
13872 1   
13873 1   
13874 3   
13875 3   
13876 5   
13877 1   
13878 9   
13879 10  
13880 7   
13881 5   
13882 1   
13883 4   
13884 3   
13885 9   
13886 9   
13887 1   
13888 9   
13889 7   
13890 6   
13891 3   
13892 3   
13893 6   
13894 3   
13895 2   
13896 7   
13897 7   
13898 7   
13899 7   
13900 8   
13901 3   
13902 55  
13903 5   
13904 7   
13905 8   
13906 10  
13907 5   
13908 2   
13909 5   
13910 3   
13911 10  
13912 7   
13913 8   
13914 10  
13915 7   
13916 7   
13917 10  
13918 2   
13919 6   
13920 9   
13921 1   
13922 6   
13923 6   
13924 2   
13925 99  
13926 6   
13927 1   
13928 85  
13929 6   
13930 10  
13931 6   
13932 2   
13933 4   
13934 1   
13935 1   
13936 4   
13937 1   
13938 8   
13939 2   
13940 6   
13941 8   
13942 8   
13943 7   
13944 2   
13945 1   
13946 3   
13947 5   
13948 2   
13949 6   
13950 3   
13951 3   
13952 6   
13953 3   
13954 4   
13955 1   
13956 9   
13957 3   
13958 5   
13959 2   
13960 5   
13961 7   
13962 4   
13963 6   
13964 8   
13965 76  
13966 88  
13967 6   
13968 8   
13969 73  
13970 6   
13971 8   
13972 7   
13973 8   
13974 3   
13975 9   
13976 9   
13977 1   
13978 4   
13979 3   
13980 2   
13981 55  
13982 10  
13983 9   
13984 4   
13985 2   
13986 6   
13987 4   
13988 8   
13989 9   
13990 2   
13991 9   
13992 1   
13993 2   
13994 10  
13995 5   
13996 82  
13997 1   
13998 4   
13999 9   
14000 10  
14001 10  
14002 4   
14003 3   
14004 10  
14005 2   
14006 7   
14007 3   
14008 9   
14009 8   
14010 9   
14011 7   
14012 5   
14013 10  
14014 6   
14015 9   
14016 6   
14017 7   
14018 1   
14019 8   
14020 9   
14021 9   
14022 10  
14023 2   
14024 10  
14025 3   
14026 8   
14027 9   
14028 5   
14029 9   
14030 9   
14031 3   
14032 7   
14033 3   
14034 8   
14035 10  
14036 7   
14037 4   
14038 3   
14039 3   
14040 5   
14041 7   
14042 9   
14043 9   
14044 6   
14045 10  
14046 3   
14047 7   
14048 6   
14049 10  
14050 7   
14051 4   
14052 6   
14053 3   
14054 9   
14055 4   
14056 8   
14057 10  
14058 97  
14059 10  
14060 10  
14061 8   
14062 7   
14063 4   
14064 3   
14065 10  
14066 2   
14067 8   
14068 1   
14069 6   
14070 1   
14071 2   
14072 5   
14073 2   
14074 3   
14075 9   
14076 79  
14077 1   
14078 8   
14079 1   
14080 8   
14081 7   
14082 10  
14083 9   
14084 4   
14085 3   
14086 5   
14087 3   
14088 7   
14089 3   
14090 2   
14091 7   
14092 1   
14093 1   
14094 6   
14095 8   
14096 8   
14097 5   
14098 4   
14099 2   
14100 3   
14101 1   
14102 7   
14103 8   
14104 6   
14105 60  
14106 2   
14107 1   
14108 10  
14109 1   
14110 2   
14111 2   
14112 10  
14113 5   
14114 3   
14115 7   
14116 2   
14117 8   
14118 10  
14119 5   
14120 10  
14121 1   
14122 7   
14123 1   
14124 10  
14125 2   
14126 6   
14127 10  
14128 7   
14129 7   
14130 3   
14131 2   
14132 8   
14133 2   
14134 8   
14135 7   
14136 92  
14137 10  
14138 6   
14139 3   
14140 1   
14141 3   
14142 10  
14143 7   
14144 7   
14145 9   
14146 4   
14147 8   
14148 4   
14149 87  
14150 1   
14151 5   
14152 9   
14153 3   
14154 62  
14155 8   
14156 3   
14157 8   
14158 6   
14159 9   
14160 2   
14161 1   
14162 8   
14163 10  
14164 1   
14165 6   
14166 4   
14167 5   
14168 56  
14169 1   
14170 3   
14171 6   
14172 1   
14173 7   
14174 2   
14175 1   
14176 2   
14177 1   
14178 1   
14179 5   
14180 1   
14181 10  
14182 5   
14183 8   
14184 3   
14185 10  
14186 6   
14187 4   
14188 7   
14189 2   
14190 1   
14191 5   
14192 2   
14193 58  
14194 10  
14195 9   
14196 10  
14197 10  
14198 8   
14199 6   
14200 7   
14201 7   
14202 10  
14203 3   
14204 1   
14205 3   
14206 3   
14207 2   
14208 5   
14209 1   
14210 6   
14211 3   
14212 3   
14213 8   
14214 2   
14215 4   
14216 5   
14217 6   
14218 3   
14219 1   
14220 52  
14221 8   
14222 8   
14223 4   
14224 86  
14225 1   
14226 10  
14227 1   
14228 7   
14229 5   
14230 10  
14231 8   
14232 5   
14233 3   
14234 5   
14235 10  
14236 5   
14237 8   
14238 8   
14239 10  
14240 3   
14241 4   
14242 2   
14243 6   
14244 8   
14245 2   
14246 9   
14247 9   
14248 3   
14249 5   
14250 2   
14251 2   
14252 1   
14253 2   
14254 1   
14255 89  
14256 89  
14257 6   
14258 9   
14259 10  
14260 4   
14261 4   
14262 10  
14263 6   
14264 7   
14265 1   
14266 10  
14267 9   
14268 10  
14269 6   
14270 7   
14271 4   
14272 2   
14273 6   
14274 5   
14275 7   
14276 3   
14277 8   
14278 74  
14279 10  
14280 4   
14281 9   
14282 1   
14283 10  
14284 6   
14285 6   
14286 1   
14287 5   
14288 6   
14289 72  
14290 9   
14291 1   
14292 2   
14293 8   
14294 6   
14295 2   
14296 3   
14297 3   
14298 3   
14299 6   
14300 5   
14301 5   
14302 3   
14303 1   
14304 10  
14305 10  
14306 8   
14307 9   
14308 8   
14309 1   
14310 6   
14311 8   
14312 6   
14313 59  
14314 7   
14315 7   
14316 2   
14317 1   
14318 6   
14319 8   
14320 3   
14321 7   
14322 5   
14323 7   
14324 6   
14325 6   
14326 7   
14327 2   
14328 7   
14329 2   
14330 5   
14331 5   
14332 4   
14333 4   
14334 4   
14335 3   
14336 1   
14337 4   
14338 7   
14339 7   
14340 3   
14341 6   
14342 2   
14343 1   
14344 4   
14345 5   
14346 1   
14347 1   
14348 8   
14349 7   
14350 7   
14351 64  
14352 83  
14353 6   
14354 1   
14355 8   
14356 7   
14357 2   
14358 4   
14359 3   
14360 6   
14361 1   
14362 8   
14363 2   
14364 7   
14365 7   
14366 10  
14367 1   
14368 1   
14369 3   
14370 5   
14371 4   
14372 5   
14373 6   
14374 7   
14375 2   
14376 8   
14377 4   
14378 10  
14379 10  
14380 8   
14381 6   
14382 4   
14383 6   
14384 2   
14385 9   
14386 7   
14387 3   
14388 3   
14389 8   
14390 9   
14391 9   
14392 84  
14393 8   
14394 10  
14395 4   
14396 8   
14397 5   
14398 2   
14399 9   
14400 5   
14401 5   
14402 5   
14403 1   
14404 10  
14405 10  
14406 3   
14407 2   
14408 1   
14409 1   
14410 2   
14411 9   
14412 5   
14413 7   
14414 10  
14415 1   
14416 7   
14417 2   
14418 4   
14419 10  
14420 7   
14421 5   
14422 8   
14423 4   
14424 9   
14425 80  
14426 10  
14427 1   
14428 7   
14429 4   
14430 7   
14431 6   
14432 75  
14433 2   
14434 6   
14435 2   
14436 6   
14437 10  
14438 3   
14439 3   
14440 9   
14441 5   
14442 10  
14443 1   
14444 7   
14445 8   
14446 6   
14447 7   
14448 7   
14449 7   
14450 10  
14451 10  
14452 9   
14453 2   
14454 6   
14455 2   
14456 4   
14457 9   
14458 3   
14459 6   
14460 1   
14461 9   
14462 4   
14463 3   
14464 10  
14465 1   
14466 7   
14467 6   
14468 50  
14469 7   
14470 3   
14471 10  
14472 3   
14473 8   
14474 9   
14475 9   
14476 1   
14477 8   
14478 10  
14479 10  
14480 3   
14481 7   
14482 3   
14483 3   
14484 7   
14485 5   
14486 4   
14487 5   
14488 5   
14489 9   
14490 10  
14491 5   
14492 8   
14493 1   
14494 7   
14495 2   
14496 1   
14497 4   
14498 6   
14499 5   
14500 9   
14501 7   
14502 2   
14503 6   
14504 9   
14505 2   
14506 1   
14507 4   
14508 74  
14509 2   
14510 5   
14511 9   
14512 4   
14513 9   
14514 5   
14515 4   
14516 8   
14517 3   
14518 2   
14519 10  
14520 90  
14521 4   
14522 100 
14523 85  
14524 8   
14525 7   
14526 6   
14527 8   
14528 1   
14529 5   
14530 4   
14531 4   
14532 5   
14533 4   
14534 7   
14535 2   
14536 2   
14537 8   
14538 5   
14539 6   
14540 6   
14541 4   
14542 4   
14543 8   
14544 1   
14545 1   
14546 3   
14547 6   
14548 1   
14549 5   
14550 3   
14551 6   
14552 6   
14553 9   
14554 8   
14555 6   
14556 4   
14557 7   
14558 1   
14559 1   
14560 9   
14561 1   
14562 10  
14563 10  
14564 3   
14565 4   
14566 52  
14567 2   
14568 5   
14569 2   
14570 4   
14571 9   
14572 4   
14573 6   
14574 2   
14575 5   
14576 8   
14577 6   
14578 1   
14579 7   
14580 7   
14581 7   
14582 8   
14583 8   
14584 6   
14585 4   
14586 68  
14587 4   
14588 1   
14589 8   
14590 5   
14591 82  
14592 77  
14593 10  
14594 10  
14595 1   
14596 6   
14597 7   
14598 5   
14599 70  
14600 5   
14601 2   
14602 56  
14603 2   
14604 7   
14605 7   
14606 9   
14607 4   
14608 1   
14609 3   
14610 8   
14611 2   
14612 7   
14613 6   
14614 2   
14615 5   
14616 8   
14617 2   
14618 2   
14619 5   
14620 4   
14621 1   
14622 10  
14623 3   
14624 6   
14625 5   
14626 2   
14627 3   
14628 1   
14629 8   
14630 3   
14631 10  
14632 2   
14633 8   
14634 4   
14635 6   
14636 5   
14637 3   
14638 2   
14639 2   
14640 6   
14641 2   
14642 10  
14643 5   
14644 5   
14645 6   
14646 5   
14647 3   
14648 5   
14649 4   
14650 8   
14651 6   
14652 10  
14653 5   
14654 10  
14655 8   
14656 3   
14657 2   
14658 10  
14659 1   
14660 7   
14661 10  
14662 3   
14663 10  
14664 6   
14665 4   
14666 3   
14667 1   
14668 5   
14669 8   
14670 10  
14671 9   
14672 6   
14673 73  
14674 1   
14675 6   
14676 2   
14677 8   
14678 1   
14679 3   
14680 58  
14681 3   
14682 10  
14683 3   
14684 8   
14685 10  
14686 6   
14687 5   
14688 6   
14689 7   
14690 1   
14691 4   
14692 10  
14693 7   
14694 92  
14695 6   
14696 9   
14697 5   
14698 7   
14699 10  
14700 7   
14701 10  
14702 6   
14703 1   
14704 10  
14705 5   
14706 1   
14707 4   
14708 9   
14709 8   
14710 2   
14711 9   
14712 10  
14713 8   
14714 3   
14715 8   
14716 8   
14717 2   
14718 3   
14719 1   
14720 6   
14721 10  
14722 9   
14723 2   
14724 5   
14725 5   
14726 6   
14727 4   
14728 2   
14729 5   
14730 9   
14731 3   
14732 8   
14733 4   
14734 2   
14735 6   
14736 60  
14737 7   
14738 3   
14739 6   
14740 6   
14741 5   
14742 7   
14743 3   
14744 2   
14745 3   
14746 3   
14747 2   
14748 1   
14749 3   
14750 1   
14751 5   
14752 8   
14753 67  
14754 8   
14755 9   
14756 10  
14757 1   
14758 3   
14759 4   
14760 6   
14761 10  
14762 1   
14763 4   
14764 6   
14765 6   
14766 9   
14767 3   
14768 1   
14769 55  
14770 8   
14771 6   
14772 10  
14773 67  
14774 2   
14775 8   
14776 9   
14777 4   
14778 4   
14779 53  
14780 2   
14781 4   
14782 93  
14783 5   
14784 1   
14785 1   
14786 8   
14787 4   
14788 3   
14789 3   
14790 3   
14791 95  
14792 4   
14793 3   
14794 7   
14795 4   
14796 5   
14797 9   
14798 10  
14799 4   
14800 8   
14801 3   
14802 10  
14803 7   
14804 5   
14805 8   
14806 1   
14807 1   
14808 7   
14809 6   
14810 6   
14811 10  
14812 1   
14813 2   
14814 3   
14815 9   
14816 8   
14817 2   
14818 8   
14819 4   
14820 8   
14821 9   
14822 3   
14823 10  
14824 8   
14825 9   
14826 8   
14827 8   
14828 10  
14829 5   
14830 5   
14831 8   
14832 6   
14833 1   
14834 3   
14835 7   
14836 8   
14837 3   
14838 9   
14839 9   
14840 7   
14841 4   
14842 8   
14843 10  
14844 7   
14845 64  
14846 7   
14847 4   
14848 4   
14849 6   
14850 1   
14851 6   
14852 9   
14853 10  
14854 3   
14855 4   
14856 3   
14857 1   
14858 2   
14859 5   
14860 2   
14861 1   
14862 5   
14863 5   
14864 8   
14865 9   
14866 10  
14867 6   
14868 10  
14869 9   
14870 7   
14871 4   
14872 4   
14873 4   
14874 1   
14875 7   
14876 3   
14877 9   
14878 6   
14879 10  
14880 3   
14881 4   
14882 5   
14883 8   
14884 1   
14885 8   
14886 2   
14887 10  
14888 5   
14889 5   
14890 10  
14891 9   
14892 6   
14893 10  
14894 9   
14895 9   
14896 4   
14897 5   
14898 5   
14899 5   
14900 5   
14901 7   
14902 3   
14903 2   
14904 2   
14905 5   
14906 9   
14907 9   
14908 9   
14909 9   
14910 1   
14911 8   
14912 85  
14913 4   
14914 5   
14915 10  
14916 8   
14917 2   
14918 2   
14919 3   
14920 57  
14921 2   
14922 6   
14923 4   
14924 4   
14925 9   
14926 3   
14927 10  
14928 2   
14929 8   
14930 7   
14931 9   
14932 5   
14933 4   
14934 6   
14935 8   
14936 8   
14937 5   
14938 9   
14939 2   
14940 5   
14941 5   
14942 7   
14943 9   
14944 4   
14945 1   
14946 2   
14947 5   
14948 4   
14949 9   
14950 10  
14951 3   
14952 7   
14953 54  
14954 5   
14955 63  
14956 7   
14957 1   
14958 5   
14959 4   
14960 4   
14961 2   
14962 6   
14963 1   
14964 4   
14965 9   
14966 6   
14967 8   
14968 2   
14969 10  
14970 99  
14971 3   
14972 1   
14973 3   
14974 3   
14975 4   
14976 97  
14977 5   
14978 2   
14979 9   
14980 7   
14981 3   
14982 1   
14983 6   
14984 8   
14985 3   
14986 5   
14987 5   
14988 5   
14989 9   
14990 1   
14991 2   
14992 4   
14993 6   
14994 3   
14995 2   
14996 9   
14997 3   
14998 5   
14999 1   
15000 7   
15001 4   
15002 5   
15003 9   
15004 1   
15005 6   
15006 2   
15007 5   
15008 8   
15009 8   
15010 2   
15011 5   
15012 8   
15013 1   
15014 10  
15015 10  
15016 4   
15017 9   
15018 3   
15019 6   
15020 10  
15021 10  
15022 6   
15023 3   
15024 7   
15025 10  
15026 3   
15027 3   
15028 1   
15029 1   
15030 10  
15031 2   
15032 6   
15033 5   
15034 4   
15035 2   
15036 8   
15037 9   
15038 2   
15039 10  
15040 10  
15041 9   
15042 85  
15043 7   
15044 1   
15045 4   
15046 9   
15047 6   
15048 1   
15049 9   
15050 10  
15051 2   
15052 8   
15053 1   
15054 2   
15055 8   
15056 5   
15057 53  
15058 8   
15059 8   
15060 63  
15061 9   
15062 6   
15063 3   
15064 4   
15065 8   
15066 3   
15067 4   
15068 7   
15069 1   
15070 8   
15071 6   
15072 8   
15073 2   
15074 3   
15075 3   
15076 4   
15077 1   
15078 4   
15079 9   
15080 7   
15081 84  
15082 6   
15083 6   
15084 3   
15085 6   
15086 6   
15087 51  
15088 10  
15089 7   
15090 4   
15091 8   
15092 1   
15093 7   
15094 4   
15095 8   
15096 10  
15097 3   
15098 6   
15099 1   
15100 3   
15101 1   
15102 3   
15103 9   
15104 10  
15105 7   
15106 10  
15107 5   
15108 7   
15109 8   
15110 9   
15111 6   
15112 73  
15113 2   
15114 9   
15115 1   
15116 7   
15117 6   
15118 3   
15119 5   
15120 10  
15121 6   
15122 6   
15123 1   
15124 10  
15125 10  
15126 7   
15127 10  
15128 7   
15129 1   
15130 4   
15131 7   
15132 10  
15133 1   
15134 10  
15135 3   
15136 4   
15137 6   
15138 8   
15139 10  
15140 92  
15141 1   
15142 5   
15143 5   
15144 4   
15145 4   
15146 9   
15147 3   
15148 2   
15149 7   
15150 8   
15151 5   
15152 9   
15153 10  
15154 5   
15155 9   
15156 2   
15157 88  
15158 4   
15159 5   
15160 10  
15161 9   
15162 2   
15163 8   
15164 2   
15165 7   
15166 5   
15167 4   
15168 8   
15169 10  
15170 5   
15171 10  
15172 3   
15173 9   
15174 6   
15175 1   
15176 4   
15177 8   
15178 95  
15179 51  
15180 1   
15181 3   
15182 10  
15183 6   
15184 4   
15185 7   
15186 10  
15187 1   
15188 6   
15189 4   
15190 4   
15191 9   
15192 8   
15193 8   
15194 9   
15195 3   
15196 10  
15197 6   
15198 2   
15199 6   
15200 10  
15201 6   
15202 4   
15203 7   
15204 3   
15205 5   
15206 2   
15207 8   
15208 5   
15209 10  
15210 2   
15211 9   
15212 6   
15213 3   
15214 8   
15215 1   
15216 93  
15217 7   
15218 7   
15219 5   
15220 3   
15221 10  
15222 1   
15223 68  
15224 2   
15225 10  
15226 8   
15227 100 
15228 7   
15229 9   
15230 3   
15231 4   
15232 3   
15233 5   
15234 67  
15235 8   
15236 1   
15237 1   
15238 4   
15239 80  
15240 3   
15241 2   
15242 10  
15243 10  
15244 2   
15245 7   
15246 1   
15247 1   
15248 1   
15249 7   
15250 10  
15251 10  
15252 8   
15253 9   
15254 3   
15255 5   
15256 2   
15257 6   
15258 4   
15259 8   
15260 7   
15261 9   
15262 5   
15263 9   
15264 7   
15265 1   
15266 1   
15267 1   
15268 10  
15269 10  
15270 9   
15271 5   
15272 7   
15273 10  
15274 5   
15275 7   
15276 7   
15277 5   
15278 3   
15279 9   
15280 3   
15281 9   
15282 6   
15283 77  
15284 8   
15285 4   
15286 4   
15287 8   
15288 5   
15289 3   
15290 6   
15291 2   
15292 4   
15293 8   
15294 8   
15295 7   
15296 3   
15297 4   
15298 5   
15299 8   
15300 5   
15301 1   
15302 6   
15303 3   
15304 57  
15305 4   
15306 10  
15307 9   
15308 54  
15309 9   
15310 9   
15311 4   
15312 9   
15313 3   
15314 4   
15315 2   
15316 89  
15317 80  
15318 8   
15319 1   
15320 97  
15321 98  
15322 1   
15323 4   
15324 1   
15325 5   
15326 8   
15327 4   
15328 8   
15329 9   
15330 9   
15331 5   
15332 10  
15333 10  
15334 2   
15335 1   
15336 99  
15337 9   
15338 6   
15339 3   
15340 3   
15341 4   
15342 4   
15343 10  
15344 8   
15345 4   
15346 53  
15347 8   
15348 1   
15349 6   
15350 6   
15351 3   
15352 7   
15353 7   
15354 70  
15355 5   
15356 1   
15357 1   
15358 10  
15359 7   
15360 7   
15361 4   
15362 8   
15363 2   
15364 5   
15365 3   
15366 8   
15367 5   
15368 1   
15369 7   
15370 3   
15371 10  
15372 82  
15373 6   
15374 6   
15375 7   
15376 6   
15377 1   
15378 6   
15379 6   
15380 2   
15381 7   
15382 6   
15383 6   
15384 1   
15385 4   
15386 3   
15387 10  
15388 9   
15389 9   
15390 6   
15391 8   
15392 6   
15393 10  
15394 8   
15395 7   
15396 2   
15397 10  
15398 9   
15399 82  
15400 3   
15401 6   
15402 7   
15403 5   
15404 1   
15405 4   
15406 3   
15407 1   
15408 6   
15409 1   
15410 3   
15411 8   
15412 8   
15413 3   
15414 2   
15415 7   
15416 10  
15417 7   
15418 7   
15419 10  
15420 6   
15421 10  
15422 10  
15423 68  
15424 1   
15425 4   
15426 3   
15427 9   
15428 10  
15429 5   
15430 8   
15431 7   
15432 5   
15433 10  
15434 7   
15435 3   
15436 7   
15437 10  
15438 5   
15439 8   
15440 3   
15441 4   
15442 4   
15443 2   
15444 1   
15445 6   
15446 2   
15447 1   
15448 4   
15449 10  
15450 3   
15451 9   
15452 4   
15453 3   
15454 9   
15455 2   
15456 74  
15457 7   
15458 3   
15459 3   
15460 9   
15461 10  
15462 8   
15463 2   
15464 9   
15465 9   
15466 8   
15467 9   
15468 8   
15469 9   
15470 8   
15471 9   
15472 1   
15473 8   
15474 9   
15475 8   
15476 2   
15477 10  
15478 1   
15479 5   
15480 1   
15481 3   
15482 6   
15483 10  
15484 1   
15485 6   
15486 4   
15487 9   
15488 3   
15489 7   
15490 7   
15491 6   
15492 1   
15493 54  
15494 3   
15495 3   
15496 4   
15497 6   
15498 8   
15499 8   
15500 3   
15501 2   
15502 78  
15503 3   
15504 4   
15505 6   
15506 7   
15507 10  
15508 1   
15509 65  
15510 4   
15511 2   
15512 1   
15513 10  
15514 1   
15515 7   
15516 3   
15517 7   
15518 1   
15519 9   
15520 10  
15521 1   
15522 7   
15523 6   
15524 10  
15525 2   
15526 7   
15527 4   
15528 10  
15529 8   
15530 8   
15531 78  
15532 1   
15533 6   
15534 8   
15535 8   
15536 1   
15537 3   
15538 6   
15539 8   
15540 8   
15541 2   
15542 4   
15543 3   
15544 70  
15545 6   
15546 1   
15547 7   
15548 5   
15549 2   
15550 1   
15551 2   
15552 2   
15553 5   
15554 3   
15555 1   
15556 5   
15557 76  
15558 9   
15559 1   
15560 10  
15561 7   
15562 5   
15563 5   
15564 10  
15565 7   
15566 3   
15567 8   
15568 4   
15569 9   
15570 6   
15571 73  
15572 7   
15573 9   
15574 4   
15575 3   
15576 3   
15577 52  
15578 10  
15579 7   
15580 3   
15581 8   
15582 8   
15583 1   
15584 9   
15585 2   
15586 2   
15587 6   
15588 3   
15589 3   
15590 2   
15591 8   
15592 4   
15593 2   
15594 2   
15595 1   
15596 71  
15597 2   
15598 7   
15599 3   
15600 79  
15601 8   
15602 1   
15603 3   
15604 10  
15605 5   
15606 7   
15607 8   
15608 5   
15609 6   
15610 6   
15611 8   
15612 4   
15613 9   
15614 4   
15615 1   
15616 9   
15617 3   
15618 10  
15619 9   
15620 7   
15621 4   
15622 72  
15623 10  
15624 6   
15625 10  
15626 6   
15627 6   
15628 63  
15629 6   
15630 3   
15631 7   
15632 9   
15633 7   
15634 8   
15635 1   
15636 8   
15637 1   
15638 1   
15639 6   
15640 2   
15641 84  
15642 10  
15643 4   
15644 9   
15645 5   
15646 4   
15647 4   
15648 6   
15649 5   
15650 9   
15651 1   
15652 4   
15653 5   
15654 4   
15655 1   
15656 4   
15657 6   
15658 1   
15659 4   
15660 3   
15661 8   
15662 1   
15663 3   
15664 9   
15665 10  
15666 2   
15667 8   
15668 1   
15669 2   
15670 5   
15671 7   
15672 2   
15673 9   
15674 6   
15675 5   
15676 5   
15677 9   
15678 8   
15679 1   
15680 7   
15681 1   
15682 8   
15683 6   
15684 8   
15685 10  
15686 5   
15687 90  
15688 6   
15689 6   
15690 9   
15691 4   
15692 1   
15693 5   
15694 3   
15695 7   
15696 10  
15697 2   
15698 8   
15699 3   
15700 8   
15701 4   
15702 8   
15703 9   
15704 3   
15705 100 
15706 9   
15707 9   
15708 5   
15709 8   
15710 10  
15711 8   
15712 1   
15713 1   
15714 4   
15715 5   
15716 1   
15717 3   
15718 50  
15719 1   
15720 5   
15721 5   
15722 4   
15723 7   
15724 6   
15725 9   
15726 2   
15727 3   
15728 9   
15729 6   
15730 1   
15731 7   
15732 10  
15733 2   
15734 2   
15735 3   
15736 9   
15737 8   
15738 9   
15739 4   
15740 57  
15741 2   
15742 9   
15743 2   
15744 9   
15745 1   
15746 9   
15747 6   
15748 2   
15749 1   
15750 9   
15751 7   
15752 6   
15753 6   
15754 6   
15755 8   
15756 5   
15757 88  
15758 4   
15759 5   
15760 6   
15761 1   
15762 9   
15763 2   
15764 9   
15765 10  
15766 3   
15767 10  
15768 1   
15769 9   
15770 2   
15771 4   
15772 2   
15773 2   
15774 8   
15775 2   
15776 8   
15777 2   
15778 7   
15779 8   
15780 7   
15781 2   
15782 7   
15783 9   
15784 5   
15785 3   
15786 2   
15787 9   
15788 3   
15789 3   
15790 5   
15791 10  
15792 5   
15793 4   
15794 2   
15795 1   
15796 2   
15797 6   
15798 1   
15799 8   
15800 10  
15801 3   
15802 2   
15803 8   
15804 9   
15805 10  
15806 7   
15807 85  
15808 7   
15809 5   
15810 3   
15811 73  
15812 7   
15813 7   
15814 66  
15815 3   
15816 1   
15817 6   
15818 3   
15819 4   
15820 10  
15821 2   
15822 82  
15823 4   
15824 1   
15825 2   
15826 7   
15827 1   
15828 5   
15829 9   
15830 6   
15831 4   
15832 1   
15833 10  
15834 3   
15835 2   
15836 66  
15837 1   
15838 5   
15839 1   
15840 77  
15841 6   
15842 99  
15843 9   
15844 2   
15845 6   
15846 55  
15847 5   
15848 7   
15849 4   
15850 52  
15851 4   
15852 9   
15853 2   
15854 9   
15855 3   
15856 1   
15857 9   
15858 9   
15859 7   
15860 3   
15861 2   
15862 2   
15863 2   
15864 7   
15865 80  
15866 1   
15867 2   
15868 61  
15869 4   
15870 1   
15871 3   
15872 6   
15873 4   
15874 10  
15875 3   
15876 9   
15877 2   
15878 5   
15879 4   
15880 10  
15881 3   
15882 6   
15883 3   
15884 6   
15885 7   
15886 7   
15887 10  
15888 7   
15889 9   
15890 4   
15891 8   
15892 7   
15893 4   
15894 3   
15895 7   
15896 7   
15897 2   
15898 5   
15899 2   
15900 8   
15901 85  
15902 10  
15903 1   
15904 6   
15905 5   
15906 4   
15907 7   
15908 1   
15909 3   
15910 10  
15911 1   
15912 10  
15913 1   
15914 1   
15915 1   
15916 4   
15917 9   
15918 79  
15919 10  
15920 1   
15921 3   
15922 3   
15923 2   
15924 3   
15925 1   
15926 5   
15927 9   
15928 5   
15929 96  
15930 8   
15931 7   
15932 4   
15933 5   
15934 5   
15935 7   
15936 9   
15937 6   
15938 9   
15939 8   
15940 5   
15941 3   
15942 3   
15943 6   
15944 2   
15945 4   
15946 1   
15947 5   
15948 1   
15949 8   
15950 8   
15951 3   
15952 10  
15953 5   
15954 4   
15955 3   
15956 2   
15957 6   
15958 2   
15959 8   
15960 3   
15961 7   
15962 6   
15963 4   
15964 6   
15965 8   
15966 57  
15967 9   
15968 61  
15969 6   
15970 8   
15971 5   
15972 7   
15973 8   
15974 10  
15975 9   
15976 7   
15977 3   
15978 2   
15979 8   
15980 10  
15981 55  
15982 4   
15983 6   
15984 1   
15985 89  
15986 7   
15987 9   
15988 4   
15989 3   
15990 3   
15991 4   
15992 9   
15993 7   
15994 3   
15995 9   
15996 6   
15997 2   
15998 6   
15999 6   
16000 6   
16001 7   
16002 1   
16003 10  
16004 2   
16005 7   
16006 3   
16007 8   
16008 5   
16009 1   
16010 10  
16011 8   
16012 1   
16013 8   
16014 7   
16015 7   
16016 8   
16017 2   
16018 3   
16019 9   
16020 10  
16021 9   
16022 2   
16023 4   
16024 5   
16025 3   
16026 5   
16027 1   
16028 4   
16029 1   
16030 4   
16031 7   
16032 5   
16033 4   
16034 2   
16035 7   
16036 7   
16037 5   
16038 10  
16039 10  
16040 5   
16041 9   
16042 5   
16043 5   
16044 5   
16045 5   
16046 2   
16047 65  
16048 5   
16049 9   
16050 9   
16051 4   
16052 6   
16053 3   
16054 1   
16055 8   
16056 1   
16057 9   
16058 4   
16059 10  
16060 10  
16061 8   
16062 8   
16063 9   
16064 53  
16065 9   
16066 3   
16067 7   
16068 3   
16069 1   
16070 4   
16071 1   
16072 7   
16073 3   
16074 9   
16075 5   
16076 2   
16077 2   
16078 3   
16079 2   
16080 7   
16081 9   
16082 5   
16083 84  
16084 1   
16085 5   
16086 3   
16087 4   
16088 4   
16089 6   
16090 9   
16091 10  
16092 7   
16093 6   
16094 4   
16095 8   
16096 6   
16097 1   
16098 5   
16099 59  
16100 4   
16101 6   
16102 1   
16103 1   
16104 10  
16105 6   
16106 10  
16107 2   
16108 64  
16109 9   
16110 4   
16111 9   
16112 10  
16113 3   
16114 3   
16115 7   
16116 5   
16117 8   
16118 8   
16119 6   
16120 2   
16121 7   
16122 9   
16123 1   
16124 5   
16125 9   
16126 85  
16127 2   
16128 3   
16129 8   
16130 9   
16131 7   
16132 60  
16133 10  
16134 2   
16135 1   
16136 6   
16137 3   
16138 5   
16139 6   
16140 3   
16141 53  
16142 1   
16143 4   
16144 7   
16145 5   
16146 5   
16147 2   
16148 5   
16149 6   
16150 2   
16151 2   
16152 2   
16153 8   
16154 7   
16155 3   
16156 7   
16157 9   
16158 6   
16159 59  
16160 8   
16161 1   
16162 7   
16163 1   
16164 6   
16165 1   
16166 5   
16167 10  
16168 10  
16169 7   
16170 5   
16171 5   
16172 3   
16173 3   
16174 9   
16175 2   
16176 1   
16177 92  
16178 4   
16179 3   
16180 10  
16181 9   
16182 8   
16183 8   
16184 1   
16185 6   
16186 10  
16187 7   
16188 5   
16189 2   
16190 8   
16191 71  
16192 8   
16193 6   
16194 4   
16195 7   
16196 6   
16197 7   
16198 4   
16199 10  
16200 4   
16201 7   
16202 5   
16203 73  
16204 5   
16205 6   
16206 4   
16207 10  
16208 94  
16209 8   
16210 9   
16211 5   
16212 9   
16213 7   
16214 10  
16215 3   
16216 7   
16217 7   
16218 3   
16219 97  
16220 8   
16221 6   
16222 1   
16223 1   
16224 8   
16225 5   
16226 6   
16227 7   
16228 9   
16229 8   
16230 4   
16231 5   
16232 62  
16233 4   
16234 1   
16235 5   
16236 9   
16237 7   
16238 7   
16239 4   
16240 2   
16241 10  
16242 9   
16243 2   
16244 6   
16245 7   
16246 6   
16247 9   
16248 3   
16249 8   
16250 82  
16251 2   
16252 7   
16253 2   
16254 3   
16255 8   
16256 2   
16257 6   
16258 4   
16259 6   
16260 8   
16261 7   
16262 5   
16263 9   
16264 5   
16265 8   
16266 3   
16267 1   
16268 3   
16269 2   
16270 5   
16271 3   
16272 7   
16273 5   
16274 1   
16275 10  
16276 7   
16277 6   
16278 3   
16279 5   
16280 9   
16281 73  
16282 9   
16283 5   
16284 8   
16285 3   
16286 1   
16287 4   
16288 6   
16289 4   
16290 5   
16291 3   
16292 10  
16293 5   
16294 7   
16295 1   
16296 7   
16297 10  
16298 7   
16299 7   
16300 10  
16301 3   
16302 10  
16303 3   
16304 4   
16305 6   
16306 8   
16307 7   
16308 7   
16309 8   
16310 2   
16311 5   
16312 7   
16313 3   
16314 6   
16315 10  
16316 2   
16317 9   
16318 3   
16319 4   
16320 10  
16321 5   
16322 10  
16323 9   
16324 3   
16325 3   
16326 6   
16327 9   
16328 10  
16329 10  
16330 3   
16331 5   
16332 7   
16333 7   
16334 7   
16335 5   
16336 1   
16337 6   
16338 5   
16339 10  
16340 8   
16341 1   
16342 5   
16343 3   
16344 4   
16345 9   
16346 4   
16347 9   
16348 5   
16349 2   
16350 10  
16351 9   
16352 7   
16353 10  
16354 82  
16355 1   
16356 10  
16357 3   
16358 3   
16359 10  
16360 9   
16361 4   
16362 8   
16363 7   
16364 10  
16365 7   
16366 4   
16367 6   
16368 2   
16369 3   
16370 2   
16371 10  
16372 4   
16373 10  
16374 4   
16375 8   
16376 4   
16377 6   
16378 1   
16379 1   
16380 4   
16381 2   
16382 7   
16383 86  
16384 10  
16385 10  
16386 9   
16387 1   
16388 5   
16389 9   
16390 1   
16391 10  
16392 1   
16393 6   
16394 10  
16395 1   
16396 9   
16397 6   
16398 9   
16399 7   
16400 4   
16401 3   
16402 6   
16403 5   
16404 6   
16405 56  
16406 6   
16407 2   
16408 4   
16409 8   
16410 3   
16411 2   
16412 2   
16413 9   
16414 7   
16415 1   
16416 8   
16417 8   
16418 4   
16419 3   
16420 4   
16421 10  
16422 10  
16423 4   
16424 1   
16425 6   
16426 1   
16427 10  
16428 6   
16429 5   
16430 99  
16431 61  
16432 6   
16433 4   
16434 8   
16435 9   
16436 2   
16437 1   
16438 3   
16439 5   
16440 4   
16441 1   
16442 5   
16443 59  
16444 6   
16445 3   
16446 4   
16447 4   
16448 7   
16449 10  
16450 2   
16451 6   
16452 2   
16453 6   
16454 5   
16455 4   
16456 7   
16457 3   
16458 8   
16459 5   
16460 2   
16461 1   
16462 10  
16463 2   
16464 8   
16465 7   
16466 6   
16467 6   
16468 4   
16469 6   
16470 77  
16471 57  
16472 8   
16473 3   
16474 8   
16475 1   
16476 8   
16477 6   
16478 2   
16479 5   
16480 4   
16481 4   
16482 76  
16483 7   
16484 3   
16485 1   
16486 7   
16487 9   
16488 7   
16489 4   
16490 1   
16491 4   
16492 7   
16493 53  
16494 5   
16495 9   
16496 2   
16497 3   
16498 1   
16499 4   
16500 2   
16501 1   
16502 7   
16503 4   
16504 3   
16505 8   
16506 8   
16507 9   
16508 10  
16509 4   
16510 6   
16511 2   
16512 4   
16513 10  
16514 7   
16515 7   
16516 5   
16517 5   
16518 4   
16519 10  
16520 10  
16521 2   
16522 8   
16523 3   
16524 2   
16525 3   
16526 8   
16527 5   
16528 5   
16529 3   
16530 4   
16531 3   
16532 2   
16533 10  
16534 7   
16535 7   
16536 6   
16537 1   
16538 7   
16539 1   
16540 5   
16541 3   
16542 1   
16543 3   
16544 8   
16545 4   
16546 6   
16547 1   
16548 69  
16549 2   
16550 7   
16551 4   
16552 2   
16553 82  
16554 1   
16555 1   
16556 62  
16557 10  
16558 7   
16559 9   
16560 1   
16561 2   
16562 3   
16563 2   
16564 3   
16565 2   
16566 7   
16567 2   
16568 2   
16569 3   
16570 52  
16571 3   
16572 5   
16573 5   
16574 88  
16575 7   
16576 3   
16577 64  
16578 9   
16579 2   
16580 4   
16581 9   
16582 1   
16583 3   
16584 1   
16585 3   
16586 4   
16587 5   
16588 10  
16589 4   
16590 2   
16591 6   
16592 2   
16593 1   
16594 2   
16595 8   
16596 90  
16597 2   
16598 8   
16599 4   
16600 4   
16601 10  
16602 7   
16603 1   
16604 4   
16605 6   
16606 7   
16607 7   
16608 1   
16609 5   
16610 7   
16611 6   
16612 5   
16613 76  
16614 5   
16615 3   
16616 7   
16617 5   
16618 4   
16619 2   
16620 6   
16621 7   
16622 4   
16623 9   
16624 1   
16625 10  
16626 5   
16627 8   
16628 10  
16629 2   
16630 2   
16631 6   
16632 4   
16633 2   
16634 52  
16635 58  
16636 5   
16637 1   
16638 7   
16639 7   
16640 1   
16641 10  
16642 1   
16643 3   
16644 9   
16645 7   
16646 6   
16647 3   
16648 9   
16649 91  
16650 6   
16651 99  
16652 60  
16653 1   
16654 9   
16655 8   
16656 10  
16657 1   
16658 3   
16659 10  
16660 1   
16661 1   
16662 8   
16663 10  
16664 1   
16665 9   
16666 10  
16667 6   
16668 92  
16669 1   
16670 2   
16671 8   
16672 3   
16673 5   
16674 6   
16675 2   
16676 3   
16677 7   
16678 6   
16679 2   
16680 10  
16681 7   
16682 4   
16683 2   
16684 5   
16685 8   
16686 1   
16687 8   
16688 2   
16689 1   
16690 2   
16691 4   
16692 2   
16693 50  
16694 10  
16695 5   
16696 10  
16697 10  
16698 6   
16699 6   
16700 5   
16701 63  
16702 2   
16703 4   
16704 7   
16705 9   
16706 3   
16707 8   
16708 7   
16709 7   
16710 7   
16711 7   
16712 8   
16713 1   
16714 7   
16715 1   
16716 4   
16717 3   
16718 1   
16719 10  
16720 8   
16721 7   
16722 2   
16723 4   
16724 9   
16725 7   
16726 7   
16727 10  
16728 4   
16729 3   
16730 8   
16731 3   
16732 8   
16733 5   
16734 1   
16735 7   
16736 1   
16737 4   
16738 8   
16739 6   
16740 5   
16741 9   
16742 1   
16743 5   
16744 7   
16745 3   
16746 3   
16747 6   
16748 1   
16749 10  
16750 5   
16751 8   
16752 4   
16753 3   
16754 4   
16755 4   
16756 2   
16757 7   
16758 9   
16759 3   
16760 3   
16761 2   
16762 79  
16763 9   
16764 6   
16765 10  
16766 3   
16767 6   
16768 7   
16769 8   
16770 2   
16771 8   
16772 5   
16773 10  
16774 5   
16775 5   
16776 1   
16777 8   
16778 1   
16779 10  
16780 9   
16781 5   
16782 3   
16783 6   
16784 9   
16785 2   
16786 1   
16787 5   
16788 6   
16789 10  
16790 6   
16791 3   
16792 9   
16793 1   
16794 2   
16795 10  
16796 2   
16797 2   
16798 10  
16799 4   
16800 5   
16801 5   
16802 9   
16803 4   
16804 98  
16805 3   
16806 8   
16807 2   
16808 4   
16809 8   
16810 4   
16811 5   
16812 1   
16813 8   
16814 6   
16815 4   
16816 4   
16817 5   
16818 3   
16819 5   
16820 3   
16821 3   
16822 9   
16823 3   
16824 1   
16825 2   
16826 8   
16827 7   
16828 3   
16829 3   
16830 8   
16831 7   
16832 8   
16833 9   
16834 4   
16835 2   
16836 3   
16837 10  
16838 2   
16839 7   
16840 10  
16841 5   
16842 5   
16843 3   
16844 4   
16845 7   
16846 9   
16847 10  
16848 3   
16849 5   
16850 3   
16851 10  
16852 6   
16853 9   
16854 9   
16855 7   
16856 1   
16857 1   
16858 2   
16859 3   
16860 1   
16861 8   
16862 10  
16863 78  
16864 6   
16865 3   
16866 62  
16867 9   
16868 6   
16869 3   
16870 5   
16871 1   
16872 7   
16873 6   
16874 1   
16875 8   
16876 97  
16877 7   
16878 7   
16879 9   
16880 73  
16881 7   
16882 6   
16883 5   
16884 2   
16885 10  
16886 5   
16887 7   
16888 4   
16889 80  
16890 3   
16891 2   
16892 2   
16893 7   
16894 6   
16895 9   
16896 8   
16897 1   
16898 8   
16899 2   
16900 10  
16901 3   
16902 7   
16903 5   
16904 5   
16905 10  
16906 5   
16907 10  
16908 83  
16909 4   
16910 6   
16911 1   
16912 3   
16913 2   
16914 6   
16915 73  
16916 10  
16917 1   
16918 10  
16919 9   
16920 9   
16921 9   
16922 7   
16923 2   
16924 4   
16925 6   
16926 2   
16927 2   
16928 1   
16929 4   
16930 1   
16931 2   
16932 6   
16933 2   
16934 5   
16935 3   
16936 8   
16937 8   
16938 3   
16939 9   
16940 4   
16941 9   
16942 1   
16943 8   
16944 5   
16945 8   
16946 2   
16947 3   
16948 4   
16949 5   
16950 7   
16951 5   
16952 2   
16953 7   
16954 3   
16955 6   
16956 3   
16957 10  
16958 7   
16959 7   
16960 8   
16961 6   
16962 3   
16963 8   
16964 6   
16965 3   
16966 5   
16967 9   
16968 3   
16969 5   
16970 8   
16971 2   
16972 1   
16973 2   
16974 3   
16975 4   
16976 10  
16977 4   
16978 4   
16979 10  
16980 1   
16981 8   
16982 1   
16983 3   
16984 1   
16985 5   
16986 7   
16987 4   
16988 9   
16989 9   
16990 6   
16991 2   
16992 68  
16993 4   
16994 7   
16995 1   
16996 7   
16997 6   
16998 1   
16999 3   
17000 6   
17001 8   
17002 6   
17003 94  
17004 5   
17005 5   
17006 9   
17007 85  
17008 9   
17009 9   
17010 1   
17011 10  
17012 4   
17013 2   
17014 3   
17015 10  
17016 3   
17017 10  
17018 5   
17019 10  
17020 10  
17021 5   
17022 9   
17023 3   
17024 89  
17025 10  
17026 5   
17027 4   
17028 2   
17029 5   
17030 7   
17031 10  
17032 8   
17033 3   
17034 5   
17035 8   
17036 5   
17037 3   
17038 3   
17039 1   
17040 7   
17041 3   
17042 10  
17043 87  
17044 2   
17045 5   
17046 4   
17047 9   
17048 4   
17049 2   
17050 7   
17051 8   
17052 1   
17053 4   
17054 8   
17055 2   
17056 1   
17057 7   
17058 7   
17059 3   
17060 2   
17061 1   
17062 4   
17063 7   
17064 4   
17065 5   
17066 6   
17067 9   
17068 5   
17069 7   
17070 2   
17071 1   
17072 9   
17073 8   
17074 3   
17075 6   
17076 8   
17077 2   
17078 5   
17079 6   
17080 6   
17081 10  
17082 5   
17083 1   
17084 9   
17085 9   
17086 8   
17087 2   
17088 8   
17089 9   
17090 3   
17091 8   
17092 1   
17093 2   
17094 10  
17095 7   
17096 7   
17097 7   
17098 1   
17099 3   
17100 5   
17101 3   
17102 5   
17103 1   
17104 3   
17105 9   
17106 1   
17107 10  
17108 3   
17109 5   
17110 2   
17111 5   
17112 8   
17113 2   
17114 1   
17115 2   
17116 1   
17117 1   
17118 7   
17119 80  
17120 6   
17121 5   
17122 1   
17123 1   
17124 3   
17125 9   
17126 9   
17127 8   
17128 1   
17129 1   
17130 7   
17131 5   
17132 1   
17133 1   
17134 62  
17135 10  
17136 9   
17137 10  
17138 10  
17139 3   
17140 9   
17141 8   
17142 4   
17143 7   
17144 4   
17145 5   
17146 7   
17147 3   
17148 10  
17149 2   
17150 5   
17151 9   
17152 4   
17153 4   
17154 10  
17155 82  
17156 1   
17157 7   
17158 3   
17159 8   
17160 3   
17161 9   
17162 8   
17163 1   
17164 1   
17165 98  
17166 8   
17167 1   
17168 5   
17169 83  
17170 6   
17171 9   
17172 3   
17173 5   
17174 1   
17175 6   
17176 10  
17177 7   
17178 5   
17179 1   
17180 1   
17181 9   
17182 10  
17183 3   
17184 2   
17185 10  
17186 2   
17187 9   
17188 6   
17189 4   
17190 10  
17191 5   
17192 50  
17193 2   
17194 6   
17195 3   
17196 8   
17197 76  
17198 1   
17199 92  
17200 4   
17201 1   
17202 4   
17203 6   
17204 3   
17205 4   
17206 9   
17207 6   
17208 6   
17209 2   
17210 3   
17211 3   
17212 9   
17213 3   
17214 2   
17215 8   
17216 2   
17217 1   
17218 9   
17219 61  
17220 8   
17221 7   
17222 2   
17223 3   
17224 7   
17225 6   
17226 2   
17227 2   
17228 5   
17229 6   
17230 6   
17231 3   
17232 1   
17233 7   
17234 7   
17235 6   
17236 5   
17237 6   
17238 7   
17239 2   
17240 7   
17241 9   
17242 5   
17243 2   
17244 5   
17245 10  
17246 5   
17247 3   
17248 2   
17249 7   
17250 6   
17251 5   
17252 5   
17253 63  
17254 9   
17255 6   
17256 2   
17257 8   
17258 1   
17259 10  
17260 4   
17261 6   
17262 4   
17263 6   
17264 3   
17265 6   
17266 5   
17267 2   
17268 5   
17269 5   
17270 10  
17271 9   
17272 4   
17273 6   
17274 85  
17275 9   
17276 6   
17277 10  
17278 1   
17279 92  
17280 6   
17281 1   
17282 8   
17283 5   
17284 5   
17285 4   
17286 6   
17287 10  
17288 69  
17289 5   
17290 7   
17291 4   
17292 5   
17293 2   
17294 1   
17295 1   
17296 5   
17297 5   
17298 10  
17299 10  
17300 8   
17301 7   
17302 2   
17303 1   
17304 2   
17305 3   
17306 5   
17307 6   
17308 9   
17309 6   
17310 10  
17311 9   
17312 9   
17313 7   
17314 8   
17315 3   
17316 10  
17317 5   
17318 4   
17319 1   
17320 1   
17321 8   
17322 7   
17323 5   
17324 7   
17325 1   
17326 8   
17327 6   
17328 9   
17329 4   
17330 3   
17331 3   
17332 7   
17333 7   
17334 10  
17335 7   
17336 72  
17337 8   
17338 10  
17339 80  
17340 6   
17341 2   
17342 3   
17343 10  
17344 7   
17345 7   
17346 8   
17347 9   
17348 9   
17349 90  
17350 1   
17351 4   
17352 3   
17353 8   
17354 73  
17355 5   
17356 2   
17357 90  
17358 10  
17359 4   
17360 10  
17361 3   
17362 9   
17363 10  
17364 5   
17365 10  
17366 8   
17367 6   
17368 2   
17369 10  
17370 6   
17371 9   
17372 6   
17373 1   
17374 98  
17375 3   
17376 2   
17377 9   
17378 6   
17379 6   
17380 9   
17381 5   
17382 4   
17383 6   
17384 2   
17385 2   
17386 8   
17387 7   
17388 10  
17389 8   
17390 77  
17391 6   
17392 3   
17393 6   
17394 10  
17395 2   
17396 6   
17397 8   
17398 5   
17399 62  
17400 1   
17401 9   
17402 2   
17403 6   
17404 7   
17405 10  
17406 2   
17407 2   
17408 1   
17409 9   
17410 5   
17411 3   
17412 10  
17413 6   
17414 10  
17415 10  
17416 3   
17417 4   
17418 2   
17419 8   
17420 6   
17421 8   
17422 1   
17423 7   
17424 3   
17425 2   
17426 9   
17427 2   
17428 7   
17429 6   
17430 9   
17431 5   
17432 5   
17433 82  
17434 6   
17435 6   
17436 6   
17437 6   
17438 2   
17439 10  
17440 2   
17441 8   
17442 84  
17443 1   
17444 7   
17445 5   
17446 10  
17447 5   
17448 5   
17449 8   
17450 7   
17451 10  
17452 6   
17453 8   
17454 8   
17455 10  
17456 9   
17457 5   
17458 7   
17459 76  
17460 3   
17461 8   
17462 3   
17463 8   
17464 3   
17465 5   
17466 6   
17467 7   
17468 3   
17469 64  
17470 9   
17471 6   
17472 6   
17473 10  
17474 2   
17475 4   
17476 2   
17477 6   
17478 5   
17479 7   
17480 4   
17481 2   
17482 1   
17483 9   
17484 56  
17485 8   
17486 4   
17487 7   
17488 67  
17489 10  
17490 8   
17491 2   
17492 8   
17493 4   
17494 89  
17495 8   
17496 7   
17497 7   
17498 6   
17499 2   
17500 6   
17501 2   
17502 5   
17503 3   
17504 4   
17505 10  
17506 8   
17507 5   
17508 7   
17509 10  
17510 6   
17511 61  
17512 4   
17513 3   
17514 1   
17515 5   
17516 5   
17517 10  
17518 7   
17519 91  
17520 1   
17521 10  
17522 5   
17523 2   
17524 8   
17525 7   
17526 2   
17527 10  
17528 2   
17529 1   
17530 7   
17531 73  
17532 5   
17533 3   
17534 9   
17535 3   
17536 4   
17537 3   
17538 7   
17539 10  
17540 6   
17541 7   
17542 8   
17543 9   
17544 6   
17545 4   
17546 4   
17547 62  
17548 6   
17549 2   
17550 5   
17551 2   
17552 97  
17553 5   
17554 8   
17555 1   
17556 9   
17557 2   
17558 6   
17559 2   
17560 9   
17561 9   
17562 10  
17563 6   
17564 8   
17565 80  
17566 7   
17567 3   
17568 2   
17569 10  
17570 3   
17571 9   
17572 5   
17573 9   
17574 2   
17575 6   
17576 10  
17577 3   
17578 3   
17579 5   
17580 5   
17581 9   
17582 3   
17583 1   
17584 2   
17585 1   
17586 9   
17587 1   
17588 7   
17589 1   
17590 9   
17591 6   
17592 2   
17593 4   
17594 2   
17595 9   
17596 7   
17597 5   
17598 8   
17599 75  
17600 2   
17601 7   
17602 1   
17603 1   
17604 8   
17605 3   
17606 9   
17607 1   
17608 7   
17609 4   
17610 3   
17611 5   
17612 8   
17613 1   
17614 8   
17615 6   
17616 8   
17617 94  
17618 9   
17619 10  
17620 3   
17621 1   
17622 6   
17623 3   
17624 6   
17625 1   
17626 8   
17627 2   
17628 1   
17629 6   
17630 1   
17631 6   
17632 5   
17633 3   
17634 3   
17635 10  
17636 1   
17637 9   
17638 9   
17639 1   
17640 1   
17641 8   
17642 5   
17643 7   
17644 4   
17645 72  
17646 5   
17647 7   
17648 7   
17649 5   
17650 9   
17651 3   
17652 2   
17653 9   
17654 1   
17655 7   
17656 57  
17657 8   
17658 1   
17659 3   
17660 2   
17661 6   
17662 3   
17663 4   
17664 3   
17665 5   
17666 8   
17667 1   
17668 4   
17669 4   
17670 5   
17671 10  
17672 7   
17673 10  
17674 4   
17675 6   
17676 9   
17677 7   
17678 2   
17679 9   
17680 1   
17681 8   
17682 3   
17683 6   
17684 6   
17685 1   
17686 8   
17687 7   
17688 1   
17689 100 
17690 7   
17691 50  
17692 3   
17693 7   
17694 4   
17695 3   
17696 4   
17697 3   
17698 8   
17699 3   
17700 8   
17701 6   
17702 7   
17703 8   
17704 5   
17705 5   
17706 4   
17707 10  
17708 6   
17709 2   
17710 9   
17711 95  
17712 8   
17713 1   
17714 6   
17715 7   
17716 4   
17717 83  
17718 1   
17719 5   
17720 1   
17721 68  
17722 4   
17723 7   
17724 5   
17725 9   
17726 8   
17727 7   
17728 7   
17729 4   
17730 2   
17731 3   
17732 5   
17733 5   
17734 4   
17735 10  
17736 10  
17737 6   
17738 4   
17739 92  
17740 3   
17741 6   
17742 8   
17743 1   
17744 6   
17745 72  
17746 4   
17747 7   
17748 9   
17749 7   
17750 3   
17751 1   
17752 6   
17753 8   
17754 6   
17755 3   
17756 2   
17757 7   
17758 2   
17759 4   
17760 9   
17761 8   
17762 10  
17763 2   
17764 5   
17765 9   
17766 6   
17767 8   
17768 62  
17769 6   
17770 8   
17771 5   
17772 5   
17773 3   
17774 8   
17775 5   
17776 7   
17777 6   
17778 1   
17779 9   
17780 7   
17781 9   
17782 6   
17783 4   
17784 4   
17785 5   
17786 6   
17787 85  
17788 4   
17789 1   
17790 9   
17791 8   
17792 5   
17793 5   
17794 2   
17795 7   
17796 5   
17797 2   
17798 6   
17799 7   
17800 4   
17801 2   
17802 59  
17803 7   
17804 10  
17805 6   
17806 10  
17807 8   
17808 7   
17809 3   
17810 5   
17811 7   
17812 2   
17813 5   
17814 2   
17815 4   
17816 66  
17817 1   
17818 89  
17819 9   
17820 6   
17821 5   
17822 5   
17823 1   
17824 5   
17825 10  
17826 4   
17827 2   
17828 5   
17829 4   
17830 6   
17831 5   
17832 8   
17833 5   
17834 2   
17835 6   
17836 4   
17837 1   
17838 6   
17839 1   
17840 3   
17841 3   
17842 9   
17843 2   
17844 5   
17845 5   
17846 10  
17847 4   
17848 3   
17849 6   
17850 9   
17851 83  
17852 7   
17853 4   
17854 10  
17855 3   
17856 2   
17857 3   
17858 9   
17859 10  
17860 8   
17861 6   
17862 9   
17863 1   
17864 1   
17865 5   
17866 10  
17867 1   
17868 9   
17869 1   
17870 1   
17871 3   
17872 8   
17873 8   
17874 5   
17875 2   
17876 1   
17877 10  
17878 5   
17879 7   
17880 3   
17881 1   
17882 1   
17883 2   
17884 5   
17885 4   
17886 6   
17887 10  
17888 2   
17889 10  
17890 10  
17891 5   
17892 2   
17893 6   
17894 2   
17895 5   
17896 5   
17897 5   
17898 4   
17899 8   
17900 3   
17901 8   
17902 2   
17903 1   
17904 82  
17905 7   
17906 4   
17907 1   
17908 8   
17909 1   
17910 1   
17911 5   
17912 7   
17913 1   
17914 10  
17915 2   
17916 4   
17917 6   
17918 10  
17919 2   
17920 9   
17921 1   
17922 8   
17923 7   
17924 4   
17925 9   
17926 4   
17927 3   
17928 2   
17929 8   
17930 3   
17931 10  
17932 4   
17933 2   
17934 2   
17935 10  
17936 5   
17937 9   
17938 5   
17939 7   
17940 10  
17941 7   
17942 9   
17943 4   
17944 5   
17945 9   
17946 1   
17947 6   
17948 3   
17949 9   
17950 8   
17951 1   
17952 2   
17953 9   
17954 7   
17955 2   
17956 91  
17957 8   
17958 5   
17959 5   
17960 2   
17961 7   
17962 6   
17963 5   
17964 3   
17965 3   
17966 9   
17967 4   
17968 93  
17969 90  
17970 10  
17971 3   
17972 8   
17973 10  
17974 82  
17975 3   
17976 4   
17977 2   
17978 7   
17979 5   
17980 6   
17981 4   
17982 76  
17983 1   
17984 2   
17985 2   
17986 3   
17987 3   
17988 7   
17989 2   
17990 8   
17991 5   
17992 6   
17993 4   
17994 6   
17995 10  
17996 7   
17997 5   
17998 3   
17999 9   
18000 4   
18001 1   
18002 5   
18003 1   
18004 2   
18005 8   
18006 10  
18007 1   
18008 6   
18009 1   
18010 10  
18011 68  
18012 6   
18013 5   
18014 9   
18015 2   
18016 7   
18017 8   
18018 3   
18019 7   
18020 62  
18021 6   
18022 4   
18023 8   
18024 5   
18025 7   
18026 6   
18027 1   
18028 7   
18029 4   
18030 5   
18031 5   
18032 4   
18033 7   
18034 59  
18035 1   
18036 1   
18037 10  
18038 7   
18039 4   
18040 6   
18041 7   
18042 5   
18043 2   
18044 2   
18045 81  
18046 9   
18047 77  
18048 5   
18049 4   
18050 3   
18051 5   
18052 1   
18053 7   
18054 7   
18055 3   
18056 5   
18057 9   
18058 2   
18059 7   
18060 7   
18061 10  
18062 4   
18063 8   
18064 10  
18065 1   
18066 9   
18067 2   
18068 6   
18069 7   
18070 6   
18071 4   
18072 1   
18073 3   
18074 69  
18075 8   
18076 6   
18077 92  
18078 6   
18079 4   
18080 7   
18081 2   
18082 8   
18083 10  
18084 10  
18085 8   
18086 1   
18087 68  
18088 1   
18089 6   
18090 9   
18091 2   
18092 8   
18093 8   
18094 5   
18095 2   
18096 3   
18097 52  
18098 6   
18099 5   
18100 9   
18101 4   
18102 2   
18103 1   
18104 5   
18105 1   
18106 5   
18107 10  
18108 4   
18109 9   
18110 8   
18111 9   
18112 3   
18113 7   
18114 10  
18115 6   
18116 10  
18117 1   
18118 9   
18119 6   
18120 96  
18121 97  
18122 5   
18123 6   
18124 9   
18125 62  
18126 7   
18127 4   
18128 3   
18129 1   
18130 7   
18131 9   
18132 8   
18133 8   
18134 8   
18135 8   
18136 10  
18137 5   
18138 1   
18139 3   
18140 5   
18141 6   
18142 10  
18143 1   
18144 4   
18145 4   
18146 5   
18147 3   
18148 10  
18149 2   
18150 1   
18151 2   
18152 8   
18153 8   
18154 8   
18155 2   
18156 10  
18157 8   
18158 92  
18159 7   
18160 8   
18161 9   
18162 5   
18163 6   
18164 4   
18165 9   
18166 10  
18167 5   
18168 8   
18169 9   
18170 7   
18171 3   
18172 4   
18173 5   
18174 4   
18175 10  
18176 6   
18177 3   
18178 91  
18179 7   
18180 4   
18181 4   
18182 3   
18183 1   
18184 8   
18185 10  
18186 82  
18187 9   
18188 10  
18189 2   
18190 8   
18191 5   
18192 7   
18193 9   
18194 3   
18195 4   
18196 7   
18197 89  
18198 9   
18199 4   
18200 2   
18201 3   
18202 8   
18203 6   
18204 6   
18205 95  
18206 5   
18207 4   
18208 10  
18209 1   
18210 4   
18211 6   
18212 3   
18213 6   
18214 2   
18215 9   
18216 6   
18217 8   
18218 4   
18219 4   
18220 3   
18221 4   
18222 63  
18223 6   
18224 6   
18225 1   
18226 1   
18227 7   
18228 6   
18229 5   
18230 4   
18231 9   
18232 5   
18233 8   
18234 9   
18235 10  
18236 8   
18237 8   
18238 2   
18239 8   
18240 5   
18241 5   
18242 8   
18243 9   
18244 4   
18245 1   
18246 2   
18247 7   
18248 2   
18249 7   
18250 6   
18251 4   
18252 7   
18253 10  
18254 7   
18255 10  
18256 7   
18257 2   
18258 9   
18259 95  
18260 5   
18261 3   
18262 10  
18263 6   
18264 4   
18265 8   
18266 7   
18267 1   
18268 3   
18269 88  
18270 66  
18271 1   
18272 4   
18273 7   
18274 8   
18275 7   
18276 7   
18277 3   
18278 2   
18279 5   
18280 1   
18281 8   
18282 6   
18283 5   
18284 3   
18285 2   
18286 1   
18287 5   
18288 10  
18289 3   
18290 5   
18291 10  
18292 1   
18293 2   
18294 9   
18295 9   
18296 5   
18297 3   
18298 10  
18299 1   
18300 8   
18301 10  
18302 10  
18303 1   
18304 4   
18305 1   
18306 2   
18307 2   
18308 53  
18309 4   
18310 9   
18311 8   
18312 7   
18313 10  
18314 4   
18315 10  
18316 56  
18317 7   
18318 7   
18319 1   
18320 8   
18321 3   
18322 7   
18323 4   
18324 4   
18325 10  
18326 1   
18327 3   
18328 5   
18329 9   
18330 3   
18331 10  
18332 8   
18333 8   
18334 1   
18335 9   
18336 7   
18337 7   
18338 9   
18339 2   
18340 9   
18341 8   
18342 6   
18343 5   
18344 6   
18345 57  
18346 7   
18347 3   
18348 97  
18349 2   
18350 2   
18351 8   
18352 5   
18353 2   
18354 3   
18355 7   
18356 8   
18357 8   
18358 8   
18359 5   
18360 9   
18361 8   
18362 4   
18363 9   
18364 7   
18365 5   
18366 1   
18367 6   
18368 6   
18369 4   
18370 3   
18371 6   
18372 9   
18373 6   
18374 3   
18375 4   
18376 4   
18377 10  
18378 4   
18379 3   
18380 7   
18381 10  
18382 2   
18383 7   
18384 5   
18385 2   
18386 5   
18387 5   
18388 5   
18389 10  
18390 3   
18391 2   
18392 4   
18393 10  
18394 1   
18395 1   
18396 4   
18397 6   
18398 9   
18399 9   
18400 1   
18401 6   
18402 6   
18403 1   
18404 7   
18405 4   
18406 6   
18407 4   
18408 2   
18409 7   
18410 1   
18411 2   
18412 2   
18413 6   
18414 1   
18415 3   
18416 7   
18417 6   
18418 2   
18419 6   
18420 10  
18421 2   
18422 10  
18423 9   
18424 4   
18425 9   
18426 1   
18427 6   
18428 1   
18429 6   
18430 2   
18431 7   
18432 8   
18433 10  
18434 87  
18435 3   
18436 5   
18437 8   
18438 7   
18439 4   
18440 7   
18441 5   
18442 2   
18443 1   
18444 8   
18445 1   
18446 5   
18447 4   
18448 1   
18449 2   
18450 2   
18451 5   
18452 7   
18453 3   
18454 1   
18455 3   
18456 8   
18457 7   
18458 6   
18459 4   
18460 7   
18461 8   
18462 1   
18463 10  
18464 10  
18465 78  
18466 8   
18467 10  
18468 3   
18469 9   
18470 9   
18471 8   
18472 1   
18473 2   
18474 5   
18475 2   
18476 10  
18477 6   
18478 50  
18479 87  
18480 2   
18481 6   
18482 9   
18483 4   
18484 2   
18485 10  
18486 6   
18487 10  
18488 6   
18489 3   
18490 9   
18491 1   
18492 10  
18493 10  
18494 95  
18495 8   
18496 9   
18497 10  
18498 6   
18499 4   
18500 9   
18501 7   
18502 8   
18503 5   
18504 2   
18505 1   
18506 4   
18507 3   
18508 1   
18509 2   
18510 7   
18511 8   
18512 3   
18513 7   
18514 3   
18515 9   
18516 6   
18517 3   
18518 9   
18519 8   
18520 7   
18521 8   
18522 2   
18523 8   
18524 7   
18525 3   
18526 2   
18527 5   
18528 2   
18529 9   
18530 3   
18531 5   
18532 5   
18533 6   
18534 7   
18535 9   
18536 4   
18537 7   
18538 5   
18539 9   
18540 8   
18541 10  
18542 3   
18543 5   
18544 6   
18545 7   
18546 4   
18547 1   
18548 9   
18549 1   
18550 8   
18551 5   
18552 9   
18553 3   
18554 4   
18555 9   
18556 9   
18557 4   
18558 5   
18559 8   
18560 1   
18561 10  
18562 61  
18563 4   
18564 6   
18565 7   
18566 6   
18567 8   
18568 10  
18569 1   
18570 8   
18571 1   
18572 1   
18573 6   
18574 3   
18575 1   
18576 10  
18577 3   
18578 10  
18579 5   
18580 4   
18581 6   
18582 10  
18583 10  
18584 4   
18585 1   
18586 1   
18587 2   
18588 4   
18589 6   
18590 3   
18591 4   
18592 8   
18593 6   
18594 10  
18595 6   
18596 8   
18597 9   
18598 10  
18599 7   
18600 10  
18601 8   
18602 1   
18603 1   
18604 1   
18605 5   
18606 10  
18607 5   
18608 2   
18609 1   
18610 1   
18611 5   
18612 2   
18613 1   
18614 6   
18615 8   
18616 4   
18617 2   
18618 55  
18619 3   
18620 4   
18621 1   
18622 9   
18623 8   
18624 2   
18625 6   
18626 9   
18627 9   
18628 2   
18629 1   
18630 9   
18631 5   
18632 2   
18633 2   
18634 6   
18635 5   
18636 10  
18637 5   
18638 100 
18639 5   
18640 7   
18641 8   
18642 9   
18643 3   
18644 2   
18645 1   
18646 8   
18647 4   
18648 4   
18649 1   
18650 10  
18651 1   
18652 6   
18653 2   
18654 8   
18655 8   
18656 10  
18657 8   
18658 5   
18659 10  
18660 1   
18661 10  
18662 10  
18663 10  
18664 8   
18665 4   
18666 3   
18667 5   
18668 7   
18669 2   
18670 10  
18671 1   
18672 8   
18673 5   
18674 1   
18675 5   
18676 7   
18677 1   
18678 7   
18679 5   
18680 4   
18681 1   
18682 6   
18683 9   
18684 4   
18685 4   
18686 51  
18687 2   
18688 7   
18689 6   
18690 3   
18691 8   
18692 5   
18693 6   
18694 3   
18695 2   
18696 10  
18697 9   
18698 9   
18699 6   
18700 4   
18701 7   
18702 2   
18703 8   
18704 64  
18705 8   
18706 7   
18707 2   
18708 9   
18709 7   
18710 2   
18711 4   
18712 5   
18713 2   
18714 5   
18715 1   
18716 6   
18717 7   
18718 9   
18719 6   
18720 4   
18721 10  
18722 10  
18723 10  
18724 10  
18725 10  
18726 5   
18727 7   
18728 8   
18729 7   
18730 51  
18731 5   
18732 8   
18733 2   
18734 5   
18735 5   
18736 9   
18737 4   
18738 5   
18739 3   
18740 2   
18741 8   
18742 3   
18743 5   
18744 4   
18745 1   
18746 7   
18747 1   
18748 7   
18749 7   
18750 2   
18751 8   
18752 3   
18753 7   
18754 3   
18755 95  
18756 6   
18757 4   
18758 4   
18759 9   
18760 8   
18761 7   
18762 8   
18763 7   
18764 7   
18765 5   
18766 5   
18767 10  
18768 2   
18769 10  
18770 1   
18771 8   
18772 6   
18773 10  
18774 4   
18775 10  
18776 4   
18777 3   
18778 8   
18779 6   
18780 1   
18781 1   
18782 9   
18783 1   
18784 8   
18785 62  
18786 1   
18787 5   
18788 3   
18789 6   
18790 4   
18791 8   
18792 9   
18793 9   
18794 68  
18795 9   
18796 5   
18797 5   
18798 10  
18799 4   
18800 1   
18801 1   
18802 1   
18803 10  
18804 10  
18805 1   
18806 5   
18807 6   
18808 9   
18809 2   
18810 5   
18811 10  
18812 9   
18813 6   
18814 2   
18815 2   
18816 5   
18817 79  
18818 6   
18819 6   
18820 9   
18821 8   
18822 7   
18823 2   
18824 1   
18825 10  
18826 2   
18827 3   
18828 2   
18829 8   
18830 6   
18831 4   
18832 6   
18833 10  
18834 1   
18835 6   
18836 7   
18837 10  
18838 4   
18839 4   
18840 6   
18841 10  
18842 1   
18843 8   
18844 9   
18845 2   
18846 97  
18847 10  
18848 51  
18849 9   
18850 10  
18851 1   
18852 2   
18853 4   
18854 9   
18855 7   
18856 1   
18857 6   
18858 10  
18859 8   
18860 5   
18861 4   
18862 3   
18863 9   
18864 1   
18865 5   
18866 3   
18867 9   
18868 10  
18869 9   
18870 9   
18871 2   
18872 5   
18873 7   
18874 7   
18875 8   
18876 10  
18877 3   
18878 5   
18879 6   
18880 6   
18881 7   
18882 10  
18883 4   
18884 9   
18885 2   
18886 8   
18887 9   
18888 6   
18889 8   
18890 1   
18891 1   
18892 8   
18893 1   
18894 2   
18895 7   
18896 3   
18897 1   
18898 3   
18899 4   
18900 4   
18901 10  
18902 3   
18903 1   
18904 6   
18905 5   
18906 3   
18907 6   
18908 8   
18909 3   
18910 67  
18911 7   
18912 6   
18913 8   
18914 4   
18915 8   
18916 3   
18917 5   
18918 3   
18919 3   
18920 7   
18921 3   
18922 9   
18923 3   
18924 2   
18925 10  
18926 86  
18927 7   
18928 1   
18929 5   
18930 5   
18931 4   
18932 3   
18933 10  
18934 4   
18935 1   
18936 10  
18937 1   
18938 10  
18939 4   
18940 9   
18941 6   
18942 3   
18943 8   
18944 9   
18945 10  
18946 2   
18947 2   
18948 3   
18949 5   
18950 5   
18951 4   
18952 7   
18953 9   
18954 8   
18955 1   
18956 3   
18957 1   
18958 7   
18959 9   
18960 6   
18961 8   
18962 6   
18963 4   
18964 4   
18965 6   
18966 5   
18967 10  
18968 5   
18969 7   
18970 2   
18971 8   
18972 91  
18973 6   
18974 10  
18975 3   
18976 6   
18977 6   
18978 6   
18979 80  
18980 10  
18981 4   
18982 3   
18983 2   
18984 9   
18985 1   
18986 7   
18987 4   
18988 9   
18989 7   
18990 4   
18991 2   
18992 2   
18993 9   
18994 3   
18995 2   
18996 9   
18997 1   
18998 6   
18999 3   
19000 9   
19001 4   
19002 2   
19003 4   
19004 3   
19005 6   
19006 8   
19007 10  
19008 10  
19009 9   
19010 9   
19011 1   
19012 1   
19013 3   
19014 1   
19015 10  
19016 3   
19017 2   
19018 6   
19019 10  
19020 6   
19021 7   
19022 5   
19023 6   
19024 10  
19025 1   
19026 9   
19027 2   
19028 7   
19029 3   
19030 6   
19031 3   
19032 3   
19033 2   
19034 1   
19035 2   
19036 1   
19037 4   
19038 10  
19039 2   
19040 5   
19041 4   
19042 10  
19043 9   
19044 5   
19045 10  
19046 3   
19047 7   
19048 9   
19049 1   
19050 7   
19051 7   
19052 5   
19053 9   
19054 9   
19055 4   
19056 8   
19057 3   
19058 3   
19059 10  
19060 1   
19061 53  
19062 10  
19063 4   
19064 6   
19065 6   
19066 8   
19067 9   
19068 4   
19069 6   
19070 6   
19071 2   
19072 2   
19073 10  
19074 6   
19075 1   
19076 4   
19077 3   
19078 2   
19079 4   
19080 6   
19081 1   
19082 7   
19083 9   
19084 5   
19085 89  
19086 7   
19087 5   
19088 10  
19089 1   
19090 9   
19091 5   
19092 9   
19093 3   
19094 3   
19095 6   
19096 67  
19097 1   
19098 6   
19099 4   
19100 3   
19101 3   
19102 5   
19103 3   
19104 2   
19105 3   
19106 4   
19107 96  
19108 9   
19109 9   
19110 8   
19111 3   
19112 7   
19113 8   
19114 10  
19115 2   
19116 8   
19117 8   
19118 9   
19119 4   
19120 1   
19121 5   
19122 3   
19123 6   
19124 10  
19125 5   
19126 8   
19127 7   
19128 9   
19129 3   
19130 3   
19131 5   
19132 4   
19133 5   
19134 5   
19135 1   
19136 8   
19137 5   
19138 1   
19139 6   
19140 7   
19141 6   
19142 2   
19143 10  
19144 4   
19145 6   
19146 4   
19147 4   
19148 10  
19149 2   
19150 3   
19151 9   
19152 8   
19153 3   
19154 7   
19155 7   
19156 6   
19157 9   
19158 94  
19159 3   
19160 3   
19161 1   
19162 1   
19163 7   
19164 6   
19165 10  
19166 3   
19167 61  
19168 4   
19169 4   
19170 1   
19171 5   
19172 10  
19173 94  
19174 10  
19175 6   
19176 6   
19177 6   
19178 6   
19179 1   
19180 3   
19181 5   
19182 4   
19183 65  
19184 1   
19185 7   
19186 5   
19187 2   
19188 2   
19189 5   
19190 6   
19191 6   
19192 8   
19193 3   
19194 7   
19195 8   
19196 6   
19197 8   
19198 8   
19199 4   
19200 10  
19201 4   
19202 3   
19203 5   
19204 1   
19205 5   
19206 2   
19207 4   
19208 3   
19209 8   
19210 10  
19211 64  
19212 6   
19213 2   
19214 1   
19215 5   
19216 5   
19217 9   
19218 8   
19219 10  
19220 4   
19221 5   
19222 8   
19223 9   
19224 7   
19225 1   
19226 9   
19227 7   
19228 2   
19229 10  
19230 7   
19231 2   
19232 2   
19233 7   
19234 2   
19235 9   
19236 2   
19237 55  
19238 1   
19239 1   
19240 72  
19241 5   
19242 6   
19243 9   
19244 9   
19245 8   
19246 5   
19247 1   
19248 9   
19249 8   
19250 6   
19251 5   
19252 3   
19253 6   
19254 4   
19255 5   
19256 6   
19257 9   
19258 8   
19259 2   
19260 6   
19261 7   
19262 5   
19263 7   
19264 9   
19265 4   
19266 8   
19267 1   
19268 4   
19269 1   
19270 5   
19271 1   
19272 7   
19273 8   
19274 7   
19275 8   
19276 3   
19277 6   
19278 7   
19279 6   
19280 4   
19281 7   
19282 9   
19283 2   
19284 8   
19285 5   
19286 6   
19287 6   
19288 10  
19289 7   
19290 5   
19291 5   
19292 3   
19293 8   
19294 5   
19295 7   
19296 5   
19297 1   
19298 8   
19299 5   
19300 7   
19301 2   
19302 66  
19303 5   
19304 3   
19305 5   
19306 8   
19307 2   
19308 10  
19309 9   
19310 4   
19311 2   
19312 3   
19313 6   
19314 9   
19315 9   
19316 4   
19317 3   
19318 9   
19319 6   
19320 1   
19321 79  
19322 3   
19323 3   
19324 8   
19325 78  
19326 3   
19327 5   
19328 7   
19329 10  
19330 10  
19331 5   
19332 8   
19333 3   
19334 10  
19335 2   
19336 10  
19337 79  
19338 9   
19339 3   
19340 71  
19341 2   
19342 3   
19343 9   
19344 2   
19345 6   
19346 4   
19347 8   
19348 7   
19349 4   
19350 2   
19351 2   
19352 7   
19353 4   
19354 7   
19355 6   
19356 5   
19357 10  
19358 10  
19359 7   
19360 10  
19361 1   
19362 2   
19363 5   
19364 3   
19365 3   
19366 7   
19367 1   
19368 3   
19369 1   
19370 2   
19371 8   
19372 8   
19373 4   
19374 8   
19375 7   
19376 1   
19377 4   
19378 4   
19379 4   
19380 8   
19381 5   
19382 54  
19383 5   
19384 5   
19385 6   
19386 10  
19387 3   
19388 6   
19389 7   
19390 1   
19391 4   
19392 4   
19393 8   
19394 8   
19395 4   
19396 5   
19397 6   
19398 8   
19399 6   
19400 1   
19401 5   
19402 4   
19403 7   
19404 1   
19405 8   
19406 8   
19407 7   
19408 8   
19409 10  
19410 7   
19411 1   
19412 4   
19413 10  
19414 6   
19415 6   
19416 1   
19417 8   
19418 5   
19419 8   
19420 7   
19421 5   
19422 7   
19423 3   
19424 7   
19425 58  
19426 8   
19427 8   
19428 4   
19429 2   
19430 10  
19431 1   
19432 5   
19433 10  
19434 1   
19435 9   
19436 1   
19437 6   
19438 4   
19439 5   
19440 2   
19441 7   
19442 4   
19443 4   
19444 2   
19445 3   
19446 2   
19447 1   
19448 10  
19449 9   
19450 4   
19451 8   
19452 7   
19453 8   
19454 1   
19455 6   
19456 9   
19457 10  
19458 6   
19459 8   
19460 54  
19461 96  
19462 9   
19463 1   
19464 3   
19465 5   
19466 2   
19467 2   
19468 3   
19469 4   
19470 9   
19471 8   
19472 2   
19473 6   
19474 1   
19475 2   
19476 8   
19477 9   
19478 4   
19479 5   
19480 1   
19481 6   
19482 80  
19483 3   
19484 82  
19485 3   
19486 3   
19487 5   
19488 9   
19489 7   
19490 7   
19491 9   
19492 5   
19493 7   
19494 3   
19495 1   
19496 65  
19497 9   
19498 1   
19499 1   
19500 4   
19501 1   
19502 8   
19503 5   
19504 6   
19505 1   
19506 5   
19507 8   
19508 5   
19509 4   
19510 7   
19511 5   
19512 6   
19513 9   
19514 6   
19515 1   
19516 2   
19517 8   
19518 6   
19519 10  
19520 10  
19521 5   
19522 1   
19523 3   
19524 3   
19525 5   
19526 3   
19527 10  
19528 5   
19529 7   
19530 10  
19531 10  
19532 67  
19533 3   
19534 10  
19535 8   
19536 9   
19537 9   
19538 1   
19539 81  
19540 4   
19541 2   
19542 10  
19543 9   
19544 2   
19545 84  
19546 5   
19547 9   
19548 2   
19549 4   
19550 2   
19551 9   
19552 7   
19553 1   
19554 5   
19555 2   
19556 1   
19557 8   
19558 2   
19559 6   
19560 10  
19561 8   
19562 8   
19563 2   
19564 10  
19565 4   
19566 6   
19567 2   
19568 2   
19569 4   
19570 3   
19571 10  
19572 7   
19573 1   
19574 4   
19575 7   
19576 10  
19577 7   
19578 58  
19579 97  
19580 7   
19581 4   
19582 8   
19583 5   
19584 5   
19585 5   
19586 1   
19587 7   
19588 9   
19589 90  
19590 71  
19591 10  
19592 6   
19593 1   
19594 4   
19595 7   
19596 3   
19597 7   
19598 3   
19599 10  
19600 8   
19601 7   
19602 9   
19603 2   
19604 1   
19605 10  
19606 10  
19607 3   
19608 6   
19609 9   
19610 8   
19611 10  
19612 51  
19613 3   
19614 3   
19615 6   
19616 5   
19617 2   
19618 3   
19619 9   
19620 3   
19621 8   
19622 2   
19623 3   
19624 8   
19625 97  
19626 7   
19627 5   
19628 9   
19629 6   
19630 3   
19631 3   
19632 4   
19633 7   
19634 9   
19635 1   
19636 8   
19637 5   
19638 3   
19639 6   
19640 3   
19641 7   
19642 4   
19643 6   
19644 6   
19645 1   
19646 9   
19647 5   
19648 1   
19649 9   
19650 4   
19651 9   
19652 5   
19653 2   
19654 6   
19655 1   
19656 7   
19657 10  
19658 4   
19659 7   
19660 7   
19661 9   
19662 5   
19663 9   
19664 71  
19665 8   
19666 8   
19667 4   
19668 1   
19669 7   
19670 61  
19671 58  
19672 3   
19673 7   
19674 7   
19675 9   
19676 10  
19677 1   
19678 8   
19679 4   
19680 5   
19681 10  
19682 6   
19683 5   
19684 8   
19685 9   
19686 10  
19687 89  
19688 1   
19689 7   
19690 74  
19691 9   
19692 5   
19693 10  
19694 3   
19695 5   
19696 9   
19697 1   
19698 3   
19699 10  
19700 8   
19701 6   
19702 96  
19703 5   
19704 2   
19705 3   
19706 10  
19707 6   
19708 2   
19709 3   
19710 1   
19711 7   
19712 7   
19713 10  
19714 3   
19715 6   
19716 93  
19717 5   
19718 2   
19719 10  
19720 10  
19721 5   
19722 9   
19723 9   
19724 7   
19725 1   
19726 3   
19727 4   
19728 5   
19729 4   
19730 1   
19731 4   
19732 6   
19733 10  
19734 9   
19735 10  
19736 2   
19737 2   
19738 10  
19739 7   
19740 7   
19741 8   
19742 9   
19743 6   
19744 5   
19745 7   
19746 8   
19747 56  
19748 6   
19749 1   
19750 10  
19751 6   
19752 6   
19753 2   
19754 8   
19755 2   
19756 6   
19757 2   
19758 3   
19759 3   
19760 5   
19761 8   
19762 8   
19763 2   
19764 5   
19765 79  
19766 7   
19767 2   
19768 8   
19769 3   
19770 2   
19771 1   
19772 6   
19773 10  
19774 10  
19775 4   
19776 2   
19777 10  
19778 4   
19779 8   
19780 9   
19781 3   
19782 5   
19783 7   
19784 68  
19785 1   
19786 1   
19787 3   
19788 94  
19789 4   
19790 8   
19791 82  
19792 8   
19793 2   
19794 1   
19795 3   
19796 5   
19797 7   
19798 72  
19799 5   
19800 8   
19801 8   
19802 5   
19803 7   
19804 3   
19805 8   
19806 5   
19807 2   
19808 1   
19809 3   
19810 5   
19811 10  
19812 6   
19813 8   
19814 5   
19815 10  
19816 8   
19817 7   
19818 4   
19819 8   
19820 7   
19821 2   
19822 3   
19823 9   
19824 71  
19825 9   
19826 9   
19827 7   
19828 2   
19829 5   
19830 2   
19831 8   
19832 7   
19833 2   
19834 8   
19835 7   
19836 79  
19837 3   
19838 8   
19839 5   
19840 3   
19841 10  
19842 1   
19843 7   
19844 6   
19845 5   
19846 8   
19847 6   
19848 6   
19849 8   
19850 5   
19851 8   
19852 7   
19853 9   
19854 9   
19855 98  
19856 73  
19857 10  
19858 10  
19859 9   
19860 5   
19861 8   
19862 5   
19863 7   
19864 9   
19865 1   
19866 6   
19867 2   
19868 3   
19869 6   
19870 10  
19871 7   
19872 5   
19873 2   
19874 7   
19875 8   
19876 10  
19877 2   
19878 6   
19879 7   
19880 6   
19881 2   
19882 60  
19883 2   
19884 8   
19885 10  
19886 8   
19887 1   
19888 2   
19889 9   
19890 8   
19891 7   
19892 3   
19893 2   
19894 9   
19895 5   
19896 57  
19897 7   
19898 4   
19899 6   
19900 3   
19901 1   
19902 7   
19903 3   
19904 4   
19905 7   
19906 8   
19907 3   
19908 91  
19909 2   
19910 9   
19911 69  
19912 5   
19913 5   
19914 10  
19915 6   
19916 2   
19917 6   
19918 9   
19919 5   
19920 98  
19921 10  
19922 3   
19923 4   
19924 8   
19925 7   
19926 10  
19927 81  
19928 8   
19929 10  
19930 6   
19931 4   
19932 9   
19933 98  
19934 2   
19935 8   
19936 1   
19937 1   
19938 4   
19939 6   
19940 9   
19941 1   
19942 4   
19943 2   
19944 7   
19945 3   
19946 6   
19947 5   
19948 4   
19949 5   
19950 10  
19951 6   
19952 96  
19953 55  
19954 1   
19955 83  
19956 6   
19957 8   
19958 3   
19959 6   
19960 2   
19961 8   
19962 2   
19963 1   
19964 10  
19965 6   
19966 5   
19967 3   
19968 6   
19969 7   
19970 8   
19971 5   
19972 95  
19973 8   
19974 2   
19975 2   
19976 8   
19977 7   
19978 7   
19979 3   
19980 4   
19981 8   
19982 10  
19983 5   
19984 9   
19985 9   
19986 89  
19987 9   
19988 4   
19989 7   
19990 6   
19991 6   
19992 2   
19993 8   
19994 3   
19995 5   
19996 9   
19997 1   
19998 4   
19999 9   
20000 9   
20001 8   
20002 5   
20003 4   
20004 9   
20005 2   
20006 4   
20007 5   
20008 8   
20009 4   
20010 10  
20011 7   
20012 5   
20013 6   
20014 3   
20015 7   
20016 1   
20017 4   
20018 93  
20019 8   
20020 4   
20021 9   
20022 5   
20023 2   
20024 2   
20025 3   
20026 5   
20027 6   
20028 4   
20029 5   
20030 2   
20031 9   
20032 8   
20033 3   
20034 3   
20035 5   
20036 2   
20037 9   
20038 2   
20039 5   
20040 3   
20041 2   
20042 4   
20043 9   
20044 2   
20045 5   
20046 3   
20047 4   
20048 9   
20049 3   
20050 7   
20051 4   
20052 4   
20053 8   
20054 1   
20055 9   
20056 10  
20057 9   
20058 4   
20059 5   
20060 2   
20061 51  
20062 4   
20063 3   
20064 10  
20065 8   
20066 9   
20067 6   
20068 4   
20069 7   
20070 6   
20071 2   
20072 2   
20073 10  
20074 2   
20075 9   
20076 8   
20077 2   
20078 8   
20079 4   
20080 4   
20081 5   
20082 8   
20083 7   
20084 7   
20085 1   
20086 2   
20087 2   
20088 1   
20089 3   
20090 5   
20091 75  
20092 8   
20093 7   
20094 5   
20095 9   
20096 5   
20097 8   
20098 4   
20099 7   
20100 7   
20101 6   
20102 2   
20103 7   
20104 4   
20105 99  
20106 6   
20107 5   
20108 6   
20109 2   
20110 8   
20111 4   
20112 3   
20113 9   
20114 6   
20115 4   
20116 9   
20117 2   
20118 6   
20119 7   
20120 1   
20121 4   
20122 55  
20123 1   
20124 4   
20125 2   
20126 3   
20127 4   
20128 5   
20129 2   
20130 10  
20131 4   
20132 10  
20133 10  
20134 8   
20135 6   
20136 5   
20137 1   
20138 7   
20139 1   
20140 2   
20141 56  
20142 7   
20143 70  
20144 9   
20145 7   
20146 10  
20147 5   
20148 4   
20149 1   
20150 4   
20151 1   
20152 5   
20153 6   
20154 10  
20155 1   
20156 8   
20157 10  
20158 8   
20159 56  
20160 10  
20161 4   
20162 10  
20163 6   
20164 6   
20165 8   
20166 7   
20167 1   
20168 6   
20169 8   
20170 1   
20171 9   
20172 5   
20173 4   
20174 10  
20175 8   
20176 5   
20177 9   
20178 2   
20179 1   
20180 7   
20181 92  
20182 8   
20183 7   
20184 4   
20185 9   
20186 7   
20187 3   
20188 7   
20189 1   
20190 1   
20191 4   
20192 10  
20193 10  
20194 2   
20195 9   
20196 10  
20197 8   
20198 2   
20199 2   
20200 3   
20201 4   
20202 93  
20203 7   
20204 3   
20205 1   
20206 6   
20207 9   
20208 4   
20209 5   
20210 70  
20211 10  
20212 5   
20213 1   
20214 2   
20215 10  
20216 8   
20217 4   
20218 6   
20219 9   
20220 4   
20221 1   
20222 7   
20223 5   
20224 61  
20225 8   
20226 9   
20227 4   
20228 7   
20229 4   
20230 5   
20231 6   
20232 4   
20233 9   
20234 10  
20235 7   
20236 9   
20237 8   
20238 94  
20239 4   
20240 4   
20241 3   
20242 10  
20243 87  
20244 5   
20245 8   
20246 9   
20247 9   
20248 9   
20249 4   
20250 7   
20251 1   
20252 8   
20253 3   
20254 10  
20255 4   
20256 7   
20257 8   
20258 3   
20259 9   
20260 5   
20261 4   
20262 4   
20263 5   
20264 67  
20265 8   
20266 8   
20267 3   
20268 10  
20269 6   
20270 4   
20271 3   
20272 7   
20273 63  
20274 6   
20275 7   
20276 4   
20277 6   
20278 3   
20279 10  
20280 8   
20281 6   
20282 5   
20283 4   
20284 10  
20285 8   
20286 5   
20287 6   
20288 6   
20289 9   
20290 3   
20291 3   
20292 9   
20293 7   
20294 8   
20295 10  
20296 2   
20297 5   
20298 8   
20299 7   
20300 5   
20301 2   
20302 10  
20303 7   
20304 8   
20305 1   
20306 6   
20307 10  
20308 4   
20309 2   
20310 8   
20311 9   
20312 4   
20313 3   
20314 2   
20315 2   
20316 8   
20317 82  
20318 5   
20319 84  
20320 2   
20321 2   
20322 78  
20323 4   
20324 5   
20325 8   
20326 3   
20327 9   
20328 10  
20329 9   
20330 4   
20331 4   
20332 7   
20333 3   
20334 5   
20335 4   
20336 2   
20337 5   
20338 7   
20339 9   
20340 9   
20341 4   
20342 8   
20343 10  
20344 8   
20345 1   
20346 6   
20347 6   
20348 7   
20349 10  
20350 7   
20351 6   
20352 6   
20353 9   
20354 8   
20355 10  
20356 5   
20357 2   
20358 4   
20359 7   
20360 3   
20361 8   
20362 6   
20363 8   
20364 4   
20365 1   
20366 10  
20367 3   
20368 75  
20369 9   
20370 2   
20371 3   
20372 2   
20373 6   
20374 3   
20375 7   
20376 3   
20377 6   
20378 2   
20379 1   
20380 1   
20381 5   
20382 10  
20383 8   
20384 6   
20385 9   
20386 7   
20387 1   
20388 1   
20389 2   
20390 8   
20391 10  
20392 5   
20393 92  
20394 7   
20395 3   
20396 2   
20397 4   
20398 9   
20399 1   
20400 4   
20401 1   
20402 5   
20403 1   
20404 4   
20405 2   
20406 3   
20407 4   
20408 2   
20409 1   
20410 3   
20411 8   
20412 3   
20413 6   
20414 5   
20415 8   
20416 10  
20417 7   
20418 57  
20419 9   
20420 4   
20421 1   
20422 5   
20423 2   
20424 3   
20425 7   
20426 89  
20427 9   
20428 4   
20429 5   
20430 7   
20431 10  
20432 94  
20433 4   
20434 6   
20435 1   
20436 4   
20437 4   
20438 3   
20439 69  
20440 6   
20441 4   
20442 9   
20443 10  
20444 6   
20445 4   
20446 4   
20447 6   
20448 6   
20449 5   
20450 7   
20451 8   
20452 1   
20453 5   
20454 1   
20455 84  
20456 4   
20457 8   
20458 8   
20459 3   
20460 4   
20461 7   
20462 3   
20463 4   
20464 7   
20465 2   
20466 6   
20467 7   
20468 2   
20469 9   
20470 6   
20471 5   
20472 9   
20473 2   
20474 7   
20475 4   
20476 8   
20477 3   
20478 2   
20479 7   
20480 1   
20481 4   
20482 3   
20483 7   
20484 2   
20485 9   
20486 10  
20487 3   
20488 1   
20489 7   
20490 5   
20491 6   
20492 2   
20493 6   
20494 9   
20495 3   
20496 10  
20497 6   
20498 2   
20499 6   
20500 8   
20501 4   
20502 84  
20503 7   
20504 6   
20505 2   
20506 2   
20507 8   
20508 4   
20509 6   
20510 95  
20511 2   
20512 8   
20513 4   
20514 7   
20515 10  
20516 66  
20517 7   
20518 2   
20519 3   
20520 1   
20521 3   
20522 9   
20523 6   
20524 10  
20525 7   
20526 2   
20527 80  
20528 6   
20529 9   
20530 10  
20531 3   
20532 73  
20533 5   
20534 8   
20535 8   
20536 3   
20537 8   
20538 1   
20539 3   
20540 6   
20541 9   
20542 10  
20543 4   
20544 9   
20545 86  
20546 3   
20547 5   
20548 8   
20549 2   
20550 3   
20551 5   
20552 7   
20553 1   
20554 3   
20555 8   
20556 91  
20557 6   
20558 10  
20559 7   
20560 3   
20561 3   
20562 8   
20563 86  
20564 2   
20565 8   
20566 1   
20567 81  
20568 7   
20569 2   
20570 6   
20571 9   
20572 9   
20573 2   
20574 3   
20575 2   
20576 3   
20577 10  
20578 8   
20579 2   
20580 4   
20581 6   
20582 63  
20583 89  
20584 4   
20585 5   
20586 7   
20587 2   
20588 7   
20589 10  
20590 56  
20591 8   
20592 10  
20593 8   
20594 10  
20595 10  
20596 3   
20597 5   
20598 3   
20599 10  
20600 10  
20601 6   
20602 8   
20603 2   
20604 4   
20605 2   
20606 9   
20607 1   
20608 3   
20609 9   
20610 2   
20611 8   
20612 3   
20613 4   
20614 6   
20615 9   
20616 9   
20617 7   
20618 4   
20619 9   
20620 7   
20621 6   
20622 4   
20623 1   
20624 10  
20625 3   
20626 8   
20627 5   
20628 3   
20629 2   
20630 10  
20631 4   
20632 5   
20633 10  
20634 2   
20635 6   
20636 1   
20637 7   
20638 5   
20639 5   
20640 2   
20641 10  
20642 9   
20643 4   
20644 62  
20645 1   
20646 6   
20647 10  
20648 51  
20649 2   
20650 10  
20651 8   
20652 10  
20653 9   
20654 10  
20655 2   
20656 2   
20657 9   
20658 2   
20659 90  
20660 7   
20661 6   
20662 10  
20663 8   
20664 7   
20665 7   
20666 10  
20667 2   
20668 6   
20669 8   
20670 10  
20671 8   
20672 8   
20673 7   
20674 8   
20675 4   
20676 5   
20677 8   
20678 1   
20679 1   
20680 1   
20681 5   
20682 9   
20683 9   
20684 4   
20685 9   
20686 10  
20687 1   
20688 2   
20689 7   
20690 5   
20691 2   
20692 1   
20693 6   
20694 9   
20695 5   
20696 4   
20697 6   
20698 10  
20699 10  
20700 9   
20701 9   
20702 10  
20703 10  
20704 9   
20705 7   
20706 3   
20707 6   
20708 7   
20709 5   
20710 7   
20711 7   
20712 3   
20713 5   
20714 9   
20715 6   
20716 1   
20717 4   
20718 9   
20719 7   
20720 2   
20721 2   
20722 2   
20723 3   
20724 4   
20725 6   
20726 3   
20727 10  
20728 7   
20729 5   
20730 6   
20731 2   
20732 7   
20733 7   
20734 8   
20735 7   
20736 2   
20737 4   
20738 4   
20739 8   
20740 8   
20741 6   
20742 2   
20743 3   
20744 3   
20745 1   
20746 7   
20747 7   
20748 5   
20749 1   
20750 1   
20751 6   
20752 3   
20753 5   
20754 2   
20755 5   
20756 10  
20757 5   
20758 10  
20759 9   
20760 7   
20761 3   
20762 9   
20763 10  
20764 8   
20765 8   
20766 10  
20767 8   
20768 4   
20769 1   
20770 6   
20771 3   
20772 2   
20773 7   
20774 10  
20775 5   
20776 4   
20777 8   
20778 1   
20779 4   
20780 2   
20781 89  
20782 3   
20783 2   
20784 3   
20785 4   
20786 9   
20787 8   
20788 1   
20789 10  
20790 2   
20791 9   
20792 5   
20793 5   
20794 3   
20795 7   
20796 7   
20797 7   
20798 10  
20799 10  
20800 8   
20801 10  
20802 55  
20803 7   
20804 10  
20805 4   
20806 5   
20807 3   
20808 5   
20809 5   
20810 1   
20811 6   
20812 10  
20813 4   
20814 1   
20815 65  
20816 7   
20817 3   
20818 84  
20819 4   
20820 10  
20821 7   
20822 4   
20823 2   
20824 7   
20825 9   
20826 4   
20827 6   
20828 7   
20829 6   
20830 4   
20831 2   
20832 10  
20833 3   
20834 3   
20835 1   
20836 9   
20837 8   
20838 8   
20839 5   
20840 7   
20841 4   
20842 9   
20843 7   
20844 9   
20845 5   
20846 1   
20847 5   
20848 4   
20849 6   
20850 3   
20851 4   
20852 8   
20853 74  
20854 4   
20855 10  
20856 8   
20857 92  
20858 6   
20859 1   
20860 6   
20861 5   
20862 4   
20863 10  
20864 6   
20865 5   
20866 5   
20867 10  
20868 3   
20869 3   
20870 1   
20871 85  
20872 9   
20873 69  
20874 71  
20875 5   
20876 8   
20877 1   
20878 9   
20879 81  
20880 8   
20881 78  
20882 3   
20883 7   
20884 4   
20885 5   
20886 8   
20887 9   
20888 9   
20889 2   
20890 2   
20891 2   
20892 8   
20893 8   
20894 6   
20895 8   
20896 7   
20897 4   
20898 10  
20899 8   
20900 7   
20901 6   
20902 6   
20903 9   
20904 4   
20905 1   
20906 6   
20907 6   
20908 2   
20909 5   
20910 1   
20911 8   
20912 10  
20913 3   
20914 9   
20915 1   
20916 7   
20917 5   
20918 4   
20919 7   
20920 9   
20921 1   
20922 52  
20923 2   
20924 7   
20925 7   
20926 62  
20927 8   
20928 7   
20929 8   
20930 3   
20931 4   
20932 1   
20933 3   
20934 3   
20935 5   
20936 9   
20937 9   
20938 8   
20939 8   
20940 1   
20941 70  
20942 9   
20943 10  
20944 9   
20945 6   
20946 8   
20947 1   
20948 10  
20949 10  
20950 5   
20951 2   
20952 1   
20953 5   
20954 5   
20955 8   
20956 4   
20957 6   
20958 2   
20959 3   
20960 76  
20961 1   
20962 3   
20963 6   
20964 10  
20965 3   
20966 2   
20967 3   
20968 59  
20969 8   
20970 2   
20971 3   
20972 5   
20973 3   
20974 4   
20975 3   
20976 94  
20977 52  
20978 8   
20979 2   
20980 7   
20981 5   
20982 8   
20983 10  
20984 6   
20985 9   
20986 9   
20987 8   
20988 77  
20989 4   
20990 5   
20991 7   
20992 3   
20993 9   
20994 3   
20995 9   
20996 6   
20997 7   
20998 5   
20999 4   
21000 6   
21001 9   
21002 4   
21003 6   
21004 6   
21005 4   
21006 10  
21007 7   
21008 6   
21009 3   
21010 1   
21011 9   
21012 7   
21013 3   
21014 76  
21015 5   
21016 8   
21017 5   
21018 70  
21019 6   
21020 1   
21021 2   
21022 8   
21023 2   
21024 66  
21025 9   
21026 6   
21027 10  
21028 7   
21029 5   
21030 3   
21031 8   
21032 10  
21033 7   
21034 4   
21035 9   
21036 2   
21037 9   
21038 2   
21039 4   
21040 9   
21041 9   
21042 10  
21043 9   
21044 3   
21045 54  
21046 6   
21047 5   
21048 4   
21049 8   
21050 5   
21051 2   
21052 4   
21053 6   
21054 7   
21055 8   
21056 9   
21057 3   
21058 10  
21059 5   
21060 2   
21061 6   
21062 9   
21063 6   
21064 5   
21065 8   
21066 6   
21067 2   
21068 9   
21069 3   
21070 7   
21071 2   
21072 5   
21073 1   
21074 1   
21075 8   
21076 4   
21077 10  
21078 1   
21079 6   
21080 9   
21081 10  
21082 2   
21083 7   
21084 6   
21085 1   
21086 1   
21087 9   
21088 7   
21089 6   
21090 4   
21091 8   
21092 3   
21093 5   
21094 10  
21095 10  
21096 69  
21097 8   
21098 3   
21099 5   
21100 5   
21101 4   
21102 5   
21103 4   
21104 1   
21105 5   
21106 5   
21107 8   
21108 7   
21109 1   
21110 9   
21111 4   
21112 9   
21113 10  
21114 7   
21115 5   
21116 3   
21117 10  
21118 6   
21119 5   
21120 75  
21121 6   
21122 3   
21123 8   
21124 9   
21125 1   
21126 5   
21127 1   
21128 4   
21129 9   
21130 3   
21131 9   
21132 10  
21133 1   
21134 2   
21135 2   
21136 5   
21137 10  
21138 3   
21139 9   
21140 5   
21141 6   
21142 3   
21143 9   
21144 10  
21145 5   
21146 7   
21147 8   
21148 6   
21149 5   
21150 7   
21151 9   
21152 8   
21153 1   
21154 7   
21155 7   
21156 3   
21157 2   
21158 8   
21159 4   
21160 1   
21161 6   
21162 1   
21163 6   
21164 1   
21165 1   
21166 6   
21167 3   
21168 3   
21169 10  
21170 10  
21171 3   
21172 5   
21173 2   
21174 4   
21175 9   
21176 2   
21177 9   
21178 1   
21179 2   
21180 1   
21181 7   
21182 5   
21183 3   
21184 6   
21185 10  
21186 9   
21187 5   
21188 6   
21189 4   
21190 6   
21191 4   
21192 90  
21193 1   
21194 9   
21195 7   
21196 9   
21197 9   
21198 3   
21199 6   
21200 5   
21201 86  
21202 5   
21203 9   
21204 2   
21205 1   
21206 7   
21207 7   
21208 9   
21209 6   
21210 1   
21211 5   
21212 9   
21213 10  
21214 10  
21215 7   
21216 10  
21217 10  
21218 3   
21219 3   
21220 1   
21221 8   
21222 81  
21223 6   
21224 7   
21225 10  
21226 9   
21227 7   
21228 7   
21229 5   
21230 8   
21231 9   
21232 9   
21233 6   
21234 6   
21235 9   
21236 10  
21237 1   
21238 2   
21239 4   
21240 69  
21241 4   
21242 9   
21243 5   
21244 5   
21245 7   
21246 9   
21247 7   
21248 3   
21249 1   
21250 3   
21251 7   
21252 3   
21253 1   
21254 3   
21255 4   
21256 10  
21257 3   
21258 7   
21259 6   
21260 5   
21261 7   
21262 10  
21263 10  
21264 5   
21265 10  
21266 6   
21267 76  
21268 2   
21269 1   
21270 4   
21271 3   
21272 5   
21273 8   
21274 2   
21275 1   
21276 1   
21277 10  
21278 5   
21279 1   
21280 9   
21281 4   
21282 3   
21283 8   
21284 6   
21285 8   
21286 6   
21287 6   
21288 4   
21289 66  
21290 5   
21291 2   
21292 6   
21293 7   
21294 8   
21295 5   
21296 5   
21297 8   
21298 10  
21299 5   
21300 8   
21301 4   
21302 8   
21303 10  
21304 8   
21305 1   
21306 2   
21307 5   
21308 4   
21309 57  
21310 9   
21311 4   
21312 2   
21313 8   
21314 3   
21315 6   
21316 64  
21317 7   
21318 9   
21319 7   
21320 8   
21321 5   
21322 6   
21323 9   
21324 1   
21325 4   
21326 6   
21327 6   
21328 8   
21329 3   
21330 8   
21331 1   
21332 2   
21333 4   
21334 5   
21335 5   
21336 6   
21337 4   
21338 82  
21339 1   
21340 10  
21341 6   
21342 2   
21343 7   
21344 10  
21345 2   
21346 4   
21347 2   
21348 5   
21349 4   
21350 7   
21351 3   
21352 8   
21353 10  
21354 5   
21355 3   
21356 5   
21357 4   
21358 10  
21359 1   
21360 8   
21361 5   
21362 8   
21363 3   
21364 93  
21365 1   
21366 4   
21367 10  
21368 10  
21369 8   
21370 8   
21371 61  
21372 8   
21373 10  
21374 9   
21375 4   
21376 9   
21377 10  
21378 4   
21379 5   
21380 8   
21381 7   
21382 4   
21383 7   
21384 9   
21385 2   
21386 63  
21387 1   
21388 4   
21389 1   
21390 5   
21391 1   
21392 7   
21393 7   
21394 4   
21395 9   
21396 10  
21397 6   
21398 3   
21399 8   
21400 9   
21401 6   
21402 1   
21403 1   
21404 9   
21405 94  
21406 3   
21407 1   
21408 6   
21409 4   
21410 10  
21411 5   
21412 8   
21413 7   
21414 2   
21415 9   
21416 8   
21417 6   
21418 1   
21419 7   
21420 2   
21421 6   
21422 3   
21423 4   
21424 5   
21425 4   
21426 8   
21427 3   
21428 10  
21429 1   
21430 8   
21431 4   
21432 5   
21433 7   
21434 10  
21435 8   
21436 10  
21437 10  
21438 8   
21439 1   
21440 7   
21441 3   
21442 7   
21443 7   
21444 9   
21445 10  
21446 8   
21447 4   
21448 7   
21449 1   
21450 6   
21451 1   
21452 8   
21453 6   
21454 6   
21455 1   
21456 6   
21457 78  
21458 7   
21459 3   
21460 6   
21461 4   
21462 2   
21463 4   
21464 1   
21465 10  
21466 10  
21467 7   
21468 8   
21469 96  
21470 68  
21471 4   
21472 10  
21473 9   
21474 6   
21475 77  
21476 8   
21477 3   
21478 6   
21479 9   
21480 1   
21481 10  
21482 2   
21483 10  
21484 60  
21485 4   
21486 1   
21487 1   
21488 9   
21489 1   
21490 1   
21491 6   
21492 56  
21493 9   
21494 2   
21495 7   
21496 4   
21497 1   
21498 3   
21499 4   
21500 10  
21501 1   
21502 3   
21503 4   
21504 1   
21505 2   
21506 10  
21507 9   
21508 1   
21509 5   
21510 10  
21511 3   
21512 5   
21513 3   
21514 1   
21515 4   
21516 73  
21517 4   
21518 8   
21519 8   
21520 4   
21521 5   
21522 8   
21523 7   
21524 5   
21525 7   
21526 2   
21527 3   
21528 9   
21529 7   
21530 10  
21531 6   
21532 3   
21533 7   
21534 10  
21535 10  
21536 55  
21537 9   
21538 6   
21539 2   
21540 67  
21541 8   
21542 7   
21543 8   
21544 70  
21545 73  
21546 4   
21547 2   
21548 4   
21549 9   
21550 6   
21551 9   
21552 9   
21553 8   
21554 9   
21555 10  
21556 7   
21557 6   
21558 9   
21559 10  
21560 54  
21561 10  
21562 6   
21563 1   
21564 3   
21565 1   
21566 1   
21567 6   
21568 8   
21569 5   
21570 6   
21571 8   
21572 1   
21573 10  
21574 3   
21575 1   
21576 6   
21577 1   
21578 1   
21579 4   
21580 7   
21581 3   
21582 3   
21583 4   
21584 9   
21585 10  
21586 8   
21587 80  
21588 10  
21589 3   
21590 4   
21591 9   
21592 4   
21593 9   
21594 10  
21595 8   
21596 5   
21597 10  
21598 8   
21599 4   
21600 5   
21601 1   
21602 4   
21603 4   
21604 6   
21605 10  
21606 4   
21607 6   
21608 4   
21609 9   
21610 5   
21611 3   
21612 10  
21613 6   
21614 2   
21615 9   
21616 10  
21617 10  
21618 3   
21619 4   
21620 10  
21621 1   
21622 9   
21623 9   
21624 63  
21625 3   
21626 3   
21627 10  
21628 3   
21629 10  
21630 3   
21631 5   
21632 3   
21633 3   
21634 8   
21635 1   
21636 5   
21637 1   
21638 5   
21639 8   
21640 9   
21641 7   
21642 10  
21643 5   
21644 5   
21645 10  
21646 1   
21647 6   
21648 6   
21649 4   
21650 5   
21651 10  
21652 8   
21653 5   
21654 3   
21655 4   
21656 1   
21657 1   
21658 7   
21659 2   
21660 5   
21661 85  
21662 82  
21663 1   
21664 9   
21665 62  
21666 8   
21667 67  
21668 10  
21669 9   
21670 2   
21671 3   
21672 4   
21673 4   
21674 4   
21675 8   
21676 4   
21677 92  
21678 9   
21679 7   
21680 9   
21681 8   
21682 78  
21683 1   
21684 5   
21685 9   
21686 9   
21687 4   
21688 2   
21689 4   
21690 6   
21691 10  
21692 9   
21693 10  
21694 5   
21695 9   
21696 2   
21697 1   
21698 6   
21699 1   
21700 7   
21701 10  
21702 77  
21703 8   
21704 5   
21705 5   
21706 1   
21707 10  
21708 9   
21709 5   
21710 9   
21711 1   
21712 2   
21713 2   
21714 5   
21715 5   
21716 5   
21717 6   
21718 2   
21719 9   
21720 6   
21721 4   
21722 1   
21723 2   
21724 8   
21725 5   
21726 10  
21727 1   
21728 8   
21729 5   
21730 9   
21731 5   
21732 1   
21733 9   
21734 7   
21735 5   
21736 7   
21737 9   
21738 4   
21739 8   
21740 1   
21741 3   
21742 7   
21743 1   
21744 8   
21745 2   
21746 89  
21747 2   
21748 79  
21749 5   
21750 1   
21751 1   
21752 8   
21753 1   
21754 9   
21755 7   
21756 8   
21757 7   
21758 6   
21759 1   
21760 1   
21761 5   
21762 7   
21763 76  
21764 10  
21765 7   
21766 7   
21767 7   
21768 8   
21769 1   
21770 4   
21771 8   
21772 2   
21773 8   
21774 6   
21775 5   
21776 7   
21777 77  
21778 4   
21779 96  
21780 4   
21781 52  
21782 9   
21783 8   
21784 9   
21785 1   
21786 9   
21787 1   
21788 3   
21789 66  
21790 3   
21791 4   
21792 71  
21793 6   
21794 5   
21795 95  
21796 7   
21797 51  
21798 8   
21799 4   
21800 3   
21801 9   
21802 8   
21803 4   
21804 4   
21805 10  
21806 9   
21807 5   
21808 8   
21809 1   
21810 5   
21811 6   
21812 6   
21813 10  
21814 5   
21815 5   
21816 65  
21817 4   
21818 6   
21819 91  
21820 5   
21821 2   
21822 4   
21823 7   
21824 5   
21825 50  
21826 2   
21827 9   
21828 6   
21829 1   
21830 10  
21831 6   
21832 9   
21833 10  
21834 3   
21835 3   
21836 6   
21837 9   
21838 2   
21839 6   
21840 4   
21841 3   
21842 51  
21843 6   
21844 8   
21845 5   
21846 7   
21847 3   
21848 1   
21849 5   
21850 1   
21851 8   
21852 6   
21853 10  
21854 10  
21855 10  
21856 3   
21857 5   
21858 4   
21859 72  
21860 9   
21861 77  
21862 9   
21863 6   
21864 10  
21865 1   
21866 6   
21867 9   
21868 3   
21869 7   
21870 9   
21871 3   
21872 1   
21873 1   
21874 9   
21875 10  
21876 5   
21877 4   
21878 10  
21879 8   
21880 5   
21881 3   
21882 3   
21883 5   
21884 8   
21885 5   
21886 8   
21887 1   
21888 3   
21889 4   
21890 10  
21891 8   
21892 4   
21893 9   
21894 3   
21895 5   
21896 2   
21897 5   
21898 7   
21899 1   
21900 62  
21901 4   
21902 2   
21903 1   
21904 4   
21905 7   
21906 9   
21907 10  
21908 1   
21909 8   
21910 3   
21911 8   
21912 1   
21913 5   
21914 9   
21915 7   
21916 4   
21917 9   
21918 10  
21919 4   
21920 10  
21921 10  
21922 9   
21923 2   
21924 4   
21925 7   
21926 7   
21927 3   
21928 8   
21929 9   
21930 5   
21931 4   
21932 6   
21933 1   
21934 10  
21935 1   
21936 7   
21937 2   
21938 6   
21939 7   
21940 9   
21941 5   
21942 6   
21943 6   
21944 2   
21945 9   
21946 7   
21947 7   
21948 3   
21949 4   
21950 10  
21951 8   
21952 7   
21953 3   
21954 2   
21955 3   
21956 10  
21957 5   
21958 9   
21959 1   
21960 2   
21961 1   
21962 1   
21963 6   
21964 8   
21965 7   
21966 9   
21967 8   
21968 9   
21969 71  
21970 7   
21971 2   
21972 1   
21973 1   
21974 2   
21975 10  
21976 3   
21977 3   
21978 6   
21979 3   
21980 3   
21981 1   
21982 6   
21983 7   
21984 3   
21985 6   
21986 10  
21987 6   
21988 1   
21989 7   
21990 4   
21991 9   
21992 6   
21993 1   
21994 1   
21995 5   
21996 10  
21997 5   
21998 7   
21999 10  
22000 2   
22001 6   
22002 10  
22003 1   
22004 7   
22005 2   
22006 4   
22007 8   
22008 3   
22009 4   
22010 1   
22011 67  
22012 1   
22013 4   
22014 1   
22015 7   
22016 2   
22017 5   
22018 2   
22019 7   
22020 9   
22021 3   
22022 6   
22023 9   
22024 9   
22025 2   
22026 5   
22027 1   
22028 1   
22029 4   
22030 9   
22031 6   
22032 2   
22033 4   
22034 6   
22035 10  
22036 10  
22037 6   
22038 2   
22039 2   
22040 4   
22041 5   
22042 9   
22043 4   
22044 1   
22045 2   
22046 2   
22047 5   
22048 1   
22049 2   
22050 4   
22051 6   
22052 4   
22053 10  
22054 2   
22055 5   
22056 5   
22057 5   
22058 4   
22059 1   
22060 6   
22061 6   
22062 9   
22063 9   
22064 1   
22065 7   
22066 9   
22067 6   
22068 10  
22069 1   
22070 85  
22071 5   
22072 2   
22073 9   
22074 8   
22075 7   
22076 3   
22077 1   
22078 9   
22079 5   
22080 3   
22081 2   
22082 10  
22083 2   
22084 10  
22085 10  
22086 8   
22087 7   
22088 8   
22089 3   
22090 5   
22091 2   
22092 10  
22093 8   
22094 69  
22095 9   
22096 6   
22097 4   
22098 6   
22099 2   
22100 4   
22101 6   
22102 2   
22103 5   
22104 2   
22105 7   
22106 10  
22107 9   
22108 4   
22109 6   
22110 8   
22111 5   
22112 3   
22113 10  
22114 4   
22115 10  
22116 9   
22117 8   
22118 10  
22119 10  
22120 8   
22121 10  
22122 6   
22123 3   
22124 2   
22125 10  
22126 6   
22127 10  
22128 8   
22129 5   
22130 3   
22131 4   
22132 9   
22133 8   
22134 10  
22135 6   
22136 1   
22137 9   
22138 4   
22139 2   
22140 9   
22141 4   
22142 10  
22143 3   
22144 10  
22145 8   
22146 8   
22147 6   
22148 9   
22149 10  
22150 9   
22151 9   
22152 6   
22153 5   
22154 6   
22155 2   
22156 7   
22157 94  
22158 3   
22159 10  
22160 6   
22161 3   
22162 1   
22163 10  
22164 4   
22165 7   
22166 6   
22167 7   
22168 4   
22169 8   
22170 2   
22171 2   
22172 7   
22173 3   
22174 9   
22175 3   
22176 60  
22177 2   
22178 5   
22179 6   
22180 67  
22181 1   
22182 7   
22183 9   
22184 1   
22185 2   
22186 56  
22187 8   
22188 10  
22189 2   
22190 10  
22191 8   
22192 2   
22193 6   
22194 4   
22195 10  
22196 6   
22197 2   
22198 5   
22199 2   
22200 6   
22201 10  
22202 88  
22203 8   
22204 10  
22205 7   
22206 5   
22207 4   
22208 6   
22209 10  
22210 1   
22211 2   
22212 5   
22213 4   
22214 9   
22215 1   
22216 10  
22217 7   
22218 3   
22219 70  
22220 2   
22221 3   
22222 8   
22223 3   
22224 2   
22225 2   
22226 7   
22227 8   
22228 6   
22229 4   
22230 74  
22231 10  
22232 8   
22233 2   
22234 4   
22235 8   
22236 2   
22237 56  
22238 6   
22239 79  
22240 7   
22241 3   
22242 86  
22243 1   
22244 4   
22245 1   
22246 10  
22247 5   
22248 5   
22249 5   
22250 1   
22251 4   
22252 3   
22253 7   
22254 1   
22255 2   
22256 2   
22257 5   
22258 2   
22259 2   
22260 9   
22261 79  
22262 7   
22263 7   
22264 6   
22265 8   
22266 5   
22267 2   
22268 6   
22269 8   
22270 4   
22271 10  
22272 8   
22273 9   
22274 6   
22275 6   
22276 9   
22277 4   
22278 8   
22279 5   
22280 10  
22281 4   
22282 4   
22283 9   
22284 1   
22285 6   
22286 4   
22287 6   
22288 7   
22289 4   
22290 5   
22291 9   
22292 3   
22293 8   
22294 5   
22295 1   
22296 8   
22297 4   
22298 1   
22299 7   
22300 9   
22301 7   
22302 9   
22303 7   
22304 9   
22305 5   
22306 4   
22307 2   
22308 8   
22309 1   
22310 5   
22311 10  
22312 10  
22313 10  
22314 2   
22315 5   
22316 4   
22317 8   
22318 4   
22319 5   
22320 6   
22321 9   
22322 1   
22323 7   
22324 64  
22325 6   
22326 4   
22327 6   
22328 6   
22329 3   
22330 2   
22331 6   
22332 63  
22333 2   
22334 2   
22335 6   
22336 7   
22337 10  
22338 7   
22339 2   
22340 7   
22341 3   
22342 67  
22343 9   
22344 5   
22345 7   
22346 8   
22347 9   
22348 68  
22349 4   
22350 6   
22351 4   
22352 7   
22353 6   
22354 10  
22355 9   
22356 10  
22357 2   
22358 3   
22359 5   
22360 6   
22361 10  
22362 9   
22363 1   
22364 9   
22365 7   
22366 2   
22367 3   
22368 1   
22369 6   
22370 7   
22371 8   
22372 86  
22373 4   
22374 9   
22375 9   
22376 4   
22377 10  
22378 10  
22379 61  
22380 75  
22381 6   
22382 6   
22383 2   
22384 8   
22385 6   
22386 69  
22387 10  
22388 9   
22389 3   
22390 9   
22391 3   
22392 3   
22393 6   
22394 1   
22395 9   
22396 6   
22397 8   
22398 10  
22399 9   
22400 6   
22401 2   
22402 4   
22403 7   
22404 5   
22405 7   
22406 5   
22407 3   
22408 8   
22409 8   
22410 4   
22411 1   
22412 5   
22413 1   
22414 10  
22415 8   
22416 3   
22417 2   
22418 1   
22419 5   
22420 2   
22421 3   
22422 73  
22423 1   
22424 5   
22425 7   
22426 10  
22427 7   
22428 3   
22429 10  
22430 2   
22431 7   
22432 9   
22433 4   
22434 10  
22435 9   
22436 4   
22437 8   
22438 6   
22439 4   
22440 9   
22441 6   
22442 4   
22443 6   
22444 5   
22445 8   
22446 1   
22447 1   
22448 8   
22449 10  
22450 1   
22451 10  
22452 83  
22453 4   
22454 4   
22455 7   
22456 5   
22457 4   
22458 4   
22459 73  
22460 5   
22461 1   
22462 6   
22463 7   
22464 3   
22465 3   
22466 8   
22467 9   
22468 2   
22469 2   
22470 5   
22471 8   
22472 6   
22473 4   
22474 4   
22475 10  
22476 75  
22477 5   
22478 3   
22479 1   
22480 10  
22481 2   
22482 1   
22483 97  
22484 8   
22485 10  
22486 10  
22487 4   
22488 2   
22489 7   
22490 4   
22491 9   
22492 5   
22493 50  
22494 62  
22495 8   
22496 10  
22497 8   
22498 3   
22499 3   
22500 92  
22501 92  
22502 8   
22503 56  
22504 4   
22505 5   
22506 1   
22507 7   
22508 7   
22509 2   
22510 8   
22511 8   
22512 2   
22513 9   
22514 2   
22515 9   
22516 9   
22517 81  
22518 4   
22519 8   
22520 1   
22521 1   
22522 6   
22523 9   
22524 3   
22525 4   
22526 8   
22527 10  
22528 4   
22529 5   
22530 5   
22531 8   
22532 8   
22533 5   
22534 54  
22535 2   
22536 5   
22537 4   
22538 6   
22539 5   
22540 4   
22541 6   
22542 55  
22543 5   
22544 10  
22545 7   
22546 3   
22547 8   
22548 10  
22549 1   
22550 4   
22551 5   
22552 4   
22553 9   
22554 10  
22555 7   
22556 5   
22557 10  
22558 4   
22559 1   
22560 9   
22561 6   
22562 8   
22563 84  
22564 9   
22565 5   
22566 7   
22567 3   
22568 77  
22569 1   
22570 67  
22571 7   
22572 83  
22573 5   
22574 9   
22575 6   
22576 4   
22577 6   
22578 1   
22579 9   
22580 2   
22581 7   
22582 9   
22583 4   
22584 1   
22585 8   
22586 5   
22587 2   
22588 7   
22589 76  
22590 4   
22591 99  
22592 4   
22593 10  
22594 7   
22595 9   
22596 2   
22597 8   
22598 6   
22599 1   
22600 4   
22601 5   
22602 10  
22603 10  
22604 2   
22605 3   
22606 81  
22607 10  
22608 8   
22609 7   
22610 6   
22611 1   
22612 10  
22613 4   
22614 9   
22615 5   
22616 5   
22617 10  
22618 6   
22619 1   
22620 4   
22621 10  
22622 9   
22623 9   
22624 8   
22625 5   
22626 10  
22627 3   
22628 8   
22629 6   
22630 7   
22631 8   
22632 7   
22633 2   
22634 5   
22635 7   
22636 10  
22637 6   
22638 5   
22639 2   
22640 6   
22641 3   
22642 7   
22643 5   
22644 3   
22645 10  
22646 5   
22647 6   
22648 5   
22649 9   
22650 5   
22651 10  
22652 10  
22653 1   
22654 7   
22655 6   
22656 8   
22657 4   
22658 3   
22659 4   
22660 10  
22661 9   
22662 10  
22663 2   
22664 10  
22665 5   
22666 8   
22667 4   
22668 10  
22669 9   
22670 2   
22671 9   
22672 8   
22673 6   
22674 3   
22675 6   
22676 5   
22677 2   
22678 8   
22679 10  
22680 10  
22681 10  
22682 3   
22683 8   
22684 1   
22685 6   
22686 6   
22687 2   
22688 10  
22689 8   
22690 2   
22691 85  
22692 2   
22693 7   
22694 8   
22695 7   
22696 9   
22697 2   
22698 6   
22699 9   
22700 3   
22701 84  
22702 7   
22703 7   
22704 5   
22705 1   
22706 8   
22707 7   
22708 6   
22709 2   
22710 8   
22711 3   
22712 3   
22713 84  
22714 7   
22715 9   
22716 3   
22717 9   
22718 6   
22719 6   
22720 7   
22721 8   
22722 7   
22723 3   
22724 4   
22725 51  
22726 6   
22727 3   
22728 75  
22729 1   
22730 9   
22731 3   
22732 7   
22733 6   
22734 10  
22735 3   
22736 79  
22737 8   
22738 1   
22739 5   
22740 5   
22741 7   
22742 7   
22743 8   
22744 9   
22745 2   
22746 3   
22747 3   
22748 5   
22749 2   
22750 7   
22751 6   
22752 1   
22753 8   
22754 3   
22755 65  
22756 4   
22757 6   
22758 4   
22759 3   
22760 2   
22761 8   
22762 5   
22763 7   
22764 9   
22765 4   
22766 9   
22767 10  
22768 9   
22769 96  
22770 4   
22771 5   
22772 4   
22773 3   
22774 3   
22775 2   
22776 7   
22777 8   
22778 7   
22779 9   
22780 3   
22781 10  
22782 4   
22783 9   
22784 7   
22785 4   
22786 2   
22787 7   
22788 2   
22789 7   
22790 8   
22791 10  
22792 9   
22793 6   
22794 2   
22795 2   
22796 2   
22797 9   
22798 10  
22799 9   
22800 6   
22801 2   
22802 3   
22803 4   
22804 10  
22805 10  
22806 7   
22807 9   
22808 9   
22809 5   
22810 6   
22811 6   
22812 10  
22813 3   
22814 1   
22815 3   
22816 1   
22817 4   
22818 1   
22819 7   
22820 8   
22821 4   
22822 2   
22823 3   
22824 80  
22825 8   
22826 7   
22827 4   
22828 5   
22829 8   
22830 6   
22831 51  
22832 2   
22833 10  
22834 7   
22835 1   
22836 5   
22837 2   
22838 3   
22839 6   
22840 8   
22841 2   
22842 7   
22843 2   
22844 7   
22845 3   
22846 6   
22847 9   
22848 5   
22849 7   
22850 7   
22851 7   
22852 6   
22853 2   
22854 5   
22855 6   
22856 7   
22857 6   
22858 2   
22859 6   
22860 9   
22861 8   
22862 4   
22863 2   
22864 3   
22865 4   
22866 10  
22867 4   
22868 1   
22869 1   
22870 5   
22871 4   
22872 3   
22873 8   
22874 5   
22875 6   
22876 5   
22877 5   
22878 3   
22879 10  
22880 1   
22881 8   
22882 9   
22883 3   
22884 97  
22885 8   
22886 1   
22887 10  
22888 4   
22889 8   
22890 8   
22891 3   
22892 6   
22893 3   
22894 3   
22895 6   
22896 3   
22897 2   
22898 9   
22899 1   
22900 8   
22901 7   
22902 2   
22903 10  
22904 1   
22905 9   
22906 4   
22907 1   
22908 6   
22909 1   
22910 5   
22911 53  
22912 6   
22913 5   
22914 8   
22915 5   
22916 4   
22917 1   
22918 2   
22919 9   
22920 10  
22921 3   
22922 8   
22923 2   
22924 5   
22925 1   
22926 9   
22927 10  
22928 1   
22929 4   
22930 1   
22931 1   
22932 3   
22933 7   
22934 9   
22935 6   
22936 5   
22937 3   
22938 8   
22939 1   
22940 9   
22941 8   
22942 10  
22943 1   
22944 9   
22945 5   
22946 6   
22947 9   
22948 2   
22949 7   
22950 3   
22951 3   
22952 9   
22953 7   
22954 86  
22955 3   
22956 1   
22957 7   
22958 7   
22959 2   
22960 9   
22961 8   
22962 3   
22963 1   
22964 10  
22965 8   
22966 9   
22967 4   
22968 7   
22969 7   
22970 3   
22971 3   
22972 9   
22973 5   
22974 1   
22975 7   
22976 4   
22977 5   
22978 4   
22979 7   
22980 4   
22981 1   
22982 5   
22983 5   
22984 2   
22985 1   
22986 6   
22987 91  
22988 6   
22989 71  
22990 8   
22991 8   
22992 2   
22993 5   
22994 98  
22995 2   
22996 1   
22997 9   
22998 3   
22999 6   
23000 69  
23001 1   
23002 10  
23003 1   
23004 6   
23005 4   
23006 1   
23007 4   
23008 2   
23009 3   
23010 10  
23011 10  
23012 9   
23013 83  
23014 4   
23015 2   
23016 10  
23017 10  
23018 9   
23019 9   
23020 8   
23021 1   
23022 8   
23023 7   
23024 3   
23025 10  
23026 6   
23027 3   
23028 6   
23029 9   
23030 9   
23031 5   
23032 90  
23033 8   
23034 2   
23035 9   
23036 8   
23037 10  
23038 10  
23039 62  
23040 10  
23041 8   
23042 10  
23043 3   
23044 8   
23045 4   
23046 4   
23047 7   
23048 9   
23049 5   
23050 3   
23051 51  
23052 4   
23053 6   
23054 10  
23055 4   
23056 1   
23057 4   
23058 6   
23059 6   
23060 8   
23061 6   
23062 6   
23063 3   
23064 10  
23065 10  
23066 2   
23067 7   
23068 3   
23069 2   
23070 5   
23071 1   
23072 1   
23073 3   
23074 5   
23075 9   
23076 8   
23077 7   
23078 6   
23079 9   
23080 4   
23081 1   
23082 6   
23083 9   
23084 5   
23085 4   
23086 1   
23087 5   
23088 7   
23089 6   
23090 3   
23091 7   
23092 8   
23093 9   
23094 6   
23095 7   
23096 5   
23097 7   
23098 7   
23099 9   
23100 9   
23101 4   
23102 5   
23103 3   
23104 90  
23105 2   
23106 10  
23107 3   
23108 1   
23109 10  
23110 5   
23111 4   
23112 7   
23113 4   
23114 9   
23115 57  
23116 9   
23117 2   
23118 2   
23119 3   
23120 1   
23121 1   
23122 1   
23123 8   
23124 6   
23125 1   
23126 68  
23127 8   
23128 4   
23129 3   
23130 3   
23131 9   
23132 10  
23133 2   
23134 8   
23135 8   
23136 2   
23137 6   
23138 10  
23139 6   
23140 8   
23141 5   
23142 9   
23143 6   
23144 6   
23145 8   
23146 6   
23147 1   
23148 8   
23149 5   
23150 1   
23151 3   
23152 10  
23153 3   
23154 4   
23155 6   
23156 9   
23157 4   
23158 8   
23159 5   
23160 9   
23161 5   
23162 2   
23163 1   
23164 10  
23165 2   
23166 54  
23167 8   
23168 5   
23169 5   
23170 5   
23171 86  
23172 5   
23173 6   
23174 7   
23175 9   
23176 8   
23177 9   
23178 10  
23179 4   
23180 7   
23181 9   
23182 10  
23183 3   
23184 7   
23185 6   
23186 3   
23187 8   
23188 8   
23189 1   
23190 10  
23191 9   
23192 6   
23193 3   
23194 1   
23195 86  
23196 8   
23197 8   
23198 8   
23199 5   
23200 4   
23201 3   
23202 10  
23203 5   
23204 3   
23205 1   
23206 7   
23207 5   
23208 3   
23209 5   
23210 6   
23211 8   
23212 1   
23213 3   
23214 2   
23215 6   
23216 6   
23217 9   
23218 8   
23219 5   
23220 9   
23221 9   
23222 2   
23223 9   
23224 55  
23225 7   
23226 4   
23227 7   
23228 5   
23229 1   
23230 9   
23231 7   
23232 7   
23233 9   
23234 8   
23235 4   
23236 4   
23237 3   
23238 9   
23239 3   
23240 2   
23241 9   
23242 2   
23243 7   
23244 8   
23245 3   
23246 4   
23247 4   
23248 5   
23249 6   
23250 5   
23251 6   
23252 6   
23253 5   
23254 8   
23255 5   
23256 2   
23257 2   
23258 1   
23259 8   
23260 9   
23261 5   
23262 9   
23263 6   
23264 10  
23265 4   
23266 2   
23267 9   
23268 3   
23269 9   
23270 3   
23271 4   
23272 1   
23273 5   
23274 8   
23275 3   
23276 7   
23277 3   
23278 9   
23279 9   
23280 8   
23281 10  
23282 7   
23283 9   
23284 9   
23285 9   
23286 4   
23287 1   
23288 10  
23289 9   
23290 4   
23291 9   
23292 5   
23293 4   
23294 8   
23295 3   
23296 6   
23297 9   
23298 1   
23299 5   
23300 7   
23301 1   
23302 9   
23303 7   
23304 4   
23305 8   
23306 1   
23307 9   
23308 2   
23309 7   
23310 54  
23311 3   
23312 75  
23313 78  
23314 6   
23315 1   
23316 10  
23317 2   
23318 5   
23319 3   
23320 5   
23321 9   
23322 5   
23323 65  
23324 10  
23325 92  
23326 8   
23327 6   
23328 3   
23329 8   
23330 7   
23331 9   
23332 6   
23333 2   
23334 7   
23335 9   
23336 2   
23337 6   
23338 2   
23339 8   
23340 4   
23341 4   
23342 9   
23343 3   
23344 6   
23345 1   
23346 4   
23347 5   
23348 8   
23349 2   
23350 10  
23351 8   
23352 8   
23353 7   
23354 10  
23355 1   
23356 10  
23357 6   
23358 1   
23359 1   
23360 9   
23361 10  
23362 64  
23363 1   
23364 2   
23365 10  
23366 7   
23367 10  
23368 3   
23369 7   
23370 5   
23371 7   
23372 3   
23373 4   
23374 4   
23375 10  
23376 1   
23377 6   
23378 8   
23379 10  
23380 9   
23381 9   
23382 8   
23383 10  
23384 10  
23385 8   
23386 8   
23387 1   
23388 8   
23389 9   
23390 2   
23391 5   
23392 7   
23393 3   
23394 6   
23395 5   
23396 10  
23397 4   
23398 1   
23399 1   
23400 6   
23401 2   
23402 7   
23403 4   
23404 10  
23405 7   
23406 3   
23407 2   
23408 4   
23409 4   
23410 10  
23411 6   
23412 5   
23413 4   
23414 10  
23415 5   
23416 8   
23417 7   
23418 75  
23419 92  
23420 6   
23421 1   
23422 5   
23423 9   
23424 3   
23425 2   
23426 5   
23427 4   
23428 8   
23429 4   
23430 7   
23431 4   
23432 5   
23433 3   
23434 8   
23435 2   
23436 9   
23437 8   
23438 5   
23439 6   
23440 8   
23441 9   
23442 7   
23443 4   
23444 10  
23445 5   
23446 3   
23447 7   
23448 10  
23449 58  
23450 10  
23451 8   
23452 5   
23453 7   
23454 5   
23455 9   
23456 3   
23457 5   
23458 6   
23459 6   
23460 9   
23461 2   
23462 3   
23463 98  
23464 9   
23465 5   
23466 3   
23467 10  
23468 3   
23469 9   
23470 2   
23471 2   
23472 9   
23473 7   
23474 2   
23475 10  
23476 7   
23477 10  
23478 5   
23479 4   
23480 1   
23481 9   
23482 2   
23483 1   
23484 10  
23485 10  
23486 10  
23487 6   
23488 1   
23489 3   
23490 5   
23491 8   
23492 1   
23493 4   
23494 5   
23495 10  
23496 8   
23497 3   
23498 8   
23499 76  
23500 3   
23501 5   
23502 1   
23503 2   
23504 4   
23505 3   
23506 9   
23507 6   
23508 3   
23509 1   
23510 7   
23511 4   
23512 8   
23513 6   
23514 10  
23515 8   
23516 7   
23517 1   
23518 10  
23519 2   
23520 8   
23521 74  
23522 9   
23523 7   
23524 6   
23525 3   
23526 6   
23527 8   
23528 6   
23529 6   
23530 3   
23531 5   
23532 10  
23533 1   
23534 6   
23535 1   
23536 7   
23537 2   
23538 1   
23539 9   
23540 74  
23541 1   
23542 8   
23543 3   
23544 4   
23545 9   
23546 61  
23547 7   
23548 10  
23549 7   
23550 6   
23551 2   
23552 7   
23553 10  
23554 10  
23555 7   
23556 10  
23557 7   
23558 10  
23559 4   
23560 2   
23561 80  
23562 1   
23563 4   
23564 6   
23565 8   
23566 3   
23567 2   
23568 4   
23569 7   
23570 5   
23571 4   
23572 93  
23573 8   
23574 6   
23575 5   
23576 9   
23577 8   
23578 1   
23579 10  
23580 5   
23581 62  
23582 1   
23583 8   
23584 4   
23585 4   
23586 73  
23587 94  
23588 6   
23589 9   
23590 6   
23591 3   
23592 65  
23593 2   
23594 3   
23595 6   
23596 10  
23597 1   
23598 5   
23599 8   
23600 5   
23601 2   
23602 9   
23603 58  
23604 10  
23605 5   
23606 2   
23607 7   
23608 8   
23609 6   
23610 1   
23611 2   
23612 5   
23613 4   
23614 5   
23615 10  
23616 6   
23617 5   
23618 9   
23619 81  
23620 4   
23621 2   
23622 3   
23623 7   
23624 6   
23625 2   
23626 7   
23627 2   
23628 5   
23629 6   
23630 9   
23631 1   
23632 6   
23633 5   
23634 7   
23635 7   
23636 9   
23637 2   
23638 7   
23639 10  
23640 3   
23641 6   
23642 2   
23643 2   
23644 6   
23645 3   
23646 7   
23647 6   
23648 7   
23649 9   
23650 5   
23651 4   
23652 7   
23653 6   
23654 2   
23655 3   
23656 7   
23657 9   
23658 7   
23659 9   
23660 1   
23661 5   
23662 1   
23663 7   
23664 5   
23665 6   
23666 6   
23667 3   
23668 1   
23669 8   
23670 8   
23671 2   
23672 9   
23673 2   
23674 7   
23675 8   
23676 3   
23677 9   
23678 7   
23679 2   
23680 7   
23681 8   
23682 7   
23683 5   
23684 7   
23685 3   
23686 7   
23687 9   
23688 1   
23689 7   
23690 3   
23691 6   
23692 3   
23693 2   
23694 7   
23695 3   
23696 2   
23697 2   
23698 8   
23699 7   
23700 8   
23701 4   
23702 10  
23703 5   
23704 3   
23705 8   
23706 76  
23707 9   
23708 9   
23709 3   
23710 2   
23711 6   
23712 7   
23713 4   
23714 4   
23715 4   
23716 10  
23717 1   
23718 7   
23719 10  
23720 7   
23721 5   
23722 10  
23723 1   
23724 9   
23725 3   
23726 72  
23727 2   
23728 2   
23729 1   
23730 6   
23731 3   
23732 1   
23733 8   
23734 1   
23735 90  
23736 4   
23737 5   
23738 9   
23739 10  
23740 100 
23741 6   
23742 7   
23743 6   
23744 8   
23745 7   
23746 5   
23747 4   
23748 3   
23749 10  
23750 3   
23751 2   
23752 6   
23753 3   
23754 4   
23755 8   
23756 70  
23757 5   
23758 9   
23759 8   
23760 4   
23761 3   
23762 2   
23763 5   
23764 6   
23765 9   
23766 4   
23767 1   
23768 6   
23769 7   
23770 4   
23771 1   
23772 6   
23773 3   
23774 8   
23775 3   
23776 6   
23777 72  
23778 5   
23779 4   
23780 5   
23781 3   
23782 2   
23783 2   
23784 3   
23785 9   
23786 2   
23787 7   
23788 6   
23789 5   
23790 5   
23791 8   
23792 1   
23793 53  
23794 1   
23795 6   
23796 5   
23797 9   
23798 3   
23799 83  
23800 8   
23801 93  
23802 1   
23803 5   
23804 2   
23805 10  
23806 8   
23807 8   
23808 8   
23809 66  
23810 8   
23811 10  
23812 56  
23813 2   
23814 99  
23815 1   
23816 4   
23817 6   
23818 1   
23819 80  
23820 5   
23821 1   
23822 9   
23823 5   
23824 10  
23825 4   
23826 9   
23827 7   
23828 3   
23829 6   
23830 10  
23831 4   
23832 4   
23833 4   
23834 9   
23835 2   
23836 5   
23837 3   
23838 3   
23839 6   
23840 10  
23841 8   
23842 7   
23843 7   
23844 5   
23845 2   
23846 6   
23847 5   
23848 3   
23849 2   
23850 3   
23851 6   
23852 9   
23853 2   
23854 10  
23855 8   
23856 2   
23857 3   
23858 9   
23859 61  
23860 5   
23861 4   
23862 2   
23863 10  
23864 4   
23865 2   
23866 70  
23867 2   
23868 5   
23869 1   
23870 5   
23871 10  
23872 10  
23873 9   
23874 6   
23875 1   
23876 10  
23877 6   
23878 3   
23879 3   
23880 60  
23881 9   
23882 5   
23883 5   
23884 5   
23885 10  
23886 3   
23887 6   
23888 67  
23889 5   
23890 3   
23891 5   
23892 4   
23893 10  
23894 6   
23895 10  
23896 4   
23897 9   
23898 3   
23899 6   
23900 7   
23901 5   
23902 1   
23903 9   
23904 92  
23905 5   
23906 2   
23907 7   
23908 10  
23909 4   
23910 9   
23911 3   
23912 7   
23913 2   
23914 7   
23915 5   
23916 9   
23917 8   
23918 10  
23919 10  
23920 2   
23921 9   
23922 3   
23923 3   
23924 6   
23925 10  
23926 2   
23927 4   
23928 85  
23929 3   
23930 56  
23931 5   
23932 89  
23933 4   
23934 5   
23935 7   
23936 85  
23937 8   
23938 9   
23939 3   
23940 5   
23941 1   
23942 2   
23943 6   
23944 3   
23945 3   
23946 7   
23947 7   
23948 9   
23949 4   
23950 1   
23951 8   
23952 5   
23953 9   
23954 7   
23955 51  
23956 10  
23957 10  
23958 9   
23959 5   
23960 8   
23961 9   
23962 3   
23963 5   
23964 69  
23965 10  
23966 4   
23967 10  
23968 3   
23969 10  
23970 2   
23971 2   
23972 7   
23973 7   
23974 7   
23975 2   
23976 10  
23977 2   
23978 5   
23979 6   
23980 7   
23981 5   
23982 1   
23983 8   
23984 3   
23985 4   
23986 4   
23987 10  
23988 6   
23989 1   
23990 4   
23991 8   
23992 9   
23993 10  
23994 3   
23995 8   
23996 8   
23997 9   
23998 9   
23999 8   
24000 8   
24001 9   
24002 10  
24003 1   
24004 9   
24005 1   
24006 2   
24007 8   
24008 2   
24009 9   
24010 5   
24011 8   
24012 8   
24013 10  
24014 7   
24015 10  
24016 7   
24017 2   
24018 2   
24019 6   
24020 80  
24021 1   
24022 8   
24023 7   
24024 1   
24025 10  
24026 2   
24027 5   
24028 2   
24029 9   
24030 5   
24031 9   
24032 1   
24033 3   
24034 1   
24035 3   
24036 75  
24037 5   
24038 1   
24039 10  
24040 7   
24041 1   
24042 9   
24043 4   
24044 3   
24045 2   
24046 10  
24047 1   
24048 8   
24049 8   
24050 9   
24051 6   
24052 8   
24053 61  
24054 1   
24055 2   
24056 5   
24057 1   
24058 9   
24059 4   
24060 1   
24061 4   
24062 1   
24063 1   
24064 9   
24065 93  
24066 1   
24067 6   
24068 9   
24069 9   
24070 9   
24071 7   
24072 7   
24073 3   
24074 2   
24075 1   
24076 92  
24077 4   
24078 1   
24079 6   
24080 5   
24081 9   
24082 1   
24083 5   
24084 9   
24085 7   
24086 4   
24087 50  
24088 2   
24089 2   
24090 8   
24091 81  
24092 10  
24093 5   
24094 10  
24095 2   
24096 5   
24097 3   
24098 9   
24099 10  
24100 1   
24101 6   
24102 7   
24103 6   
24104 9   
24105 1   
24106 4   
24107 7   
24108 5   
24109 7   
24110 3   
24111 5   
24112 7   
24113 4   
24114 1   
24115 5   
24116 8   
24117 9   
24118 1   
24119 5   
24120 4   
24121 6   
24122 6   
24123 1   
24124 4   
24125 9   
24126 9   
24127 3   
24128 4   
24129 1   
24130 1   
24131 9   
24132 82  
24133 1   
24134 3   
24135 9   
24136 5   
24137 5   
24138 8   
24139 6   
24140 5   
24141 6   
24142 86  
24143 6   
24144 3   
24145 8   
24146 1   
24147 7   
24148 4   
24149 51  
24150 6   
24151 5   
24152 10  
24153 10  
24154 5   
24155 62  
24156 4   
24157 2   
24158 4   
24159 4   
24160 2   
24161 3   
24162 4   
24163 77  
24164 6   
24165 54  
24166 4   
24167 8   
24168 4   
24169 7   
24170 5   
24171 7   
24172 10  
24173 1   
24174 3   
24175 1   
24176 2   
24177 8   
24178 8   
24179 1   
24180 8   
24181 9   
24182 10  
24183 7   
24184 2   
24185 10  
24186 7   
24187 4   
24188 1   
24189 5   
24190 8   
24191 1   
24192 1   
24193 6   
24194 7   
24195 2   
24196 5   
24197 10  
24198 5   
24199 10  
24200 5   
24201 2   
24202 3   
24203 5   
24204 2   
24205 2   
24206 5   
24207 2   
24208 9   
24209 10  
24210 7   
24211 6   
24212 5   
24213 5   
24214 2   
24215 6   
24216 76  
24217 9   
24218 3   
24219 7   
24220 3   
24221 6   
24222 4   
24223 4   
24224 7   
24225 8   
24226 2   
24227 3   
24228 3   
24229 10  
24230 7   
24231 4   
24232 1   
24233 5   
24234 8   
24235 10  
24236 3   
24237 10  
24238 3   
24239 4   
24240 1   
24241 4   
24242 6   
24243 59  
24244 1   
24245 2   
24246 5   
24247 4   
24248 7   
24249 6   
24250 1   
24251 8   
24252 7   
24253 4   
24254 9   
24255 6   
24256 6   
24257 9   
24258 7   
24259 6   
24260 4   
24261 3   
24262 10  
24263 9   
24264 4   
24265 6   
24266 1   
24267 3   
24268 50  
24269 1   
24270 10  
24271 4   
24272 4   
24273 57  
24274 2   
24275 10  
24276 87  
24277 4   
24278 5   
24279 7   
24280 4   
24281 4   
24282 4   
24283 2   
24284 10  
24285 6   
24286 4   
24287 2   
24288 4   
24289 10  
24290 9   
24291 84  
24292 9   
24293 8   
24294 7   
24295 68  
24296 9   
24297 9   
24298 4   
24299 1   
24300 2   
24301 4   
24302 6   
24303 7   
24304 1   
24305 8   
24306 81  
24307 3   
24308 3   
24309 9   
24310 7   
24311 1   
24312 5   
24313 10  
24314 4   
24315 8   
24316 5   
24317 9   
24318 64  
24319 54  
24320 2   
24321 55  
24322 9   
24323 8   
24324 3   
24325 6   
24326 3   
24327 8   
24328 4   
24329 3   
24330 8   
24331 10  
24332 10  
24333 10  
24334 8   
24335 4   
24336 9   
24337 1   
24338 2   
24339 79  
24340 1   
24341 4   
24342 4   
24343 10  
24344 6   
24345 1   
24346 1   
24347 7   
24348 6   
24349 9   
24350 6   
24351 8   
24352 4   
24353 7   
24354 71  
24355 6   
24356 10  
24357 9   
24358 2   
24359 4   
24360 6   
24361 1   
24362 2   
24363 5   
24364 8   
24365 9   
24366 8   
24367 62  
24368 6   
24369 9   
24370 6   
24371 8   
24372 8   
24373 3   
24374 10  
24375 5   
24376 4   
24377 9   
24378 8   
24379 4   
24380 7   
24381 68  
24382 9   
24383 5   
24384 8   
24385 62  
24386 6   
24387 2   
24388 5   
24389 8   
24390 5   
24391 10  
24392 1   
24393 10  
24394 5   
24395 7   
24396 2   
24397 4   
24398 6   
24399 6   
24400 3   
24401 9   
24402 5   
24403 82  
24404 9   
24405 9   
24406 6   
24407 2   
24408 10  
24409 6   
24410 3   
24411 9   
24412 9   
24413 1   
24414 5   
24415 8   
24416 7   
24417 1   
24418 9   
24419 58  
24420 7   
24421 2   
24422 7   
24423 8   
24424 4   
24425 1   
24426 9   
24427 6   
24428 8   
24429 3   
24430 5   
24431 5   
24432 3   
24433 3   
24434 4   
24435 2   
24436 2   
24437 2   
24438 8   
24439 2   
24440 8   
24441 5   
24442 9   
24443 86  
24444 6   
24445 7   
24446 10  
24447 5   
24448 6   
24449 3   
24450 6   
24451 8   
24452 4   
24453 2   
24454 7   
24455 5   
24456 1   
24457 7   
24458 6   
24459 3   
24460 4   
24461 8   
24462 7   
24463 10  
24464 10  
24465 75  
24466 4   
24467 3   
24468 6   
24469 3   
24470 9   
24471 8   
24472 5   
24473 2   
24474 9   
24475 7   
24476 2   
24477 8   
24478 1   
24479 7   
24480 3   
24481 10  
24482 5   
24483 5   
24484 8   
24485 6   
24486 1   
24487 8   
24488 6   
24489 4   
24490 5   
24491 4   
24492 1   
24493 3   
24494 6   
24495 9   
24496 10  
24497 8   
24498 2   
24499 6   
24500 6   
24501 5   
24502 10  
24503 10  
24504 5   
24505 10  
24506 3   
24507 9   
24508 9   
24509 9   
24510 9   
24511 9   
24512 3   
24513 2   
24514 1   
24515 3   
24516 5   
24517 5   
24518 1   
24519 50  
24520 5   
24521 2   
24522 3   
24523 2   
24524 9   
24525 5   
24526 4   
24527 7   
24528 71  
24529 1   
24530 7   
24531 7   
24532 2   
24533 7   
24534 59  
24535 10  
24536 2   
24537 9   
24538 10  
24539 9   
24540 10  
24541 2   
24542 4   
24543 6   
24544 54  
24545 4   
24546 7   
24547 8   
24548 3   
24549 3   
24550 6   
24551 9   
24552 3   
24553 8   
24554 2   
24555 9   
24556 9   
24557 7   
24558 3   
24559 61  
24560 1   
24561 3   
24562 4   
24563 8   
24564 7   
24565 5   
24566 91  
24567 7   
24568 9   
24569 6   
24570 7   
24571 9   
24572 9   
24573 1   
24574 4   
24575 10  
24576 9   
24577 5   
24578 7   
24579 1   
24580 6   
24581 9   
24582 5   
24583 2   
24584 5   
24585 7   
24586 7   
24587 9   
24588 10  
24589 10  
24590 10  
24591 9   
24592 1   
24593 7   
24594 1   
24595 7   
24596 5   
24597 9   
24598 68  
24599 6   
24600 75  
24601 10  
24602 97  
24603 8   
24604 10  
24605 8   
24606 7   
24607 99  
24608 10  
24609 7   
24610 5   
24611 2   
24612 2   
24613 4   
24614 8   
24615 5   
24616 10  
24617 4   
24618 1   
24619 3   
24620 7   
24621 58  
24622 2   
24623 2   
24624 1   
24625 1   
24626 3   
24627 4   
24628 4   
24629 1   
24630 57  
24631 10  
24632 6   
24633 4   
24634 79  
24635 10  
24636 1   
24637 9   
24638 4   
24639 10  
24640 5   
24641 2   
24642 6   
24643 7   
24644 7   
24645 5   
24646 4   
24647 1   
24648 10  
24649 5   
24650 6   
24651 5   
24652 8   
24653 6   
24654 3   
24655 100 
24656 6   
24657 10  
24658 3   
24659 1   
24660 5   
24661 4   
24662 8   
24663 1   
24664 1   
24665 7   
24666 1   
24667 7   
24668 2   
24669 1   
24670 2   
24671 5   
24672 2   
24673 4   
24674 6   
24675 8   
24676 6   
24677 5   
24678 7   
24679 6   
24680 8   
24681 8   
24682 1   
24683 65  
24684 10  
24685 1   
24686 6   
24687 1   
24688 10  
24689 5   
24690 10  
24691 9   
24692 4   
24693 3   
24694 5   
24695 6   
24696 2   
24697 1   
24698 6   
24699 4   
24700 76  
24701 3   
24702 3   
24703 7   
24704 2   
24705 1   
24706 5   
24707 8   
24708 3   
24709 5   
24710 7   
24711 4   
24712 10  
24713 10  
24714 6   
24715 1   
24716 67  
24717 10  
24718 8   
24719 1   
24720 75  
24721 67  
24722 10  
24723 6   
24724 2   
24725 3   
24726 10  
24727 1   
24728 8   
24729 79  
24730 1   
24731 4   
24732 2   
24733 6   
24734 10  
24735 4   
24736 3   
24737 2   
24738 6   
24739 9   
24740 10  
24741 3   
24742 1   
24743 5   
24744 7   
24745 10  
24746 2   
24747 2   
24748 6   
24749 8   
24750 9   
24751 7   
24752 4   
24753 8   
24754 4   
24755 10  
24756 2   
24757 2   
24758 7   
24759 2   
24760 10  
24761 7   
24762 6   
24763 4   
24764 3   
24765 2   
24766 4   
24767 5   
24768 7   
24769 10  
24770 6   
24771 6   
24772 6   
24773 2   
24774 70  
24775 1   
24776 3   
24777 4   
24778 1   
24779 8   
24780 3   
24781 3   
24782 1   
24783 5   
24784 8   
24785 7   
24786 10  
24787 9   
24788 8   
24789 5   
24790 6   
24791 6   
24792 9   
24793 7   
24794 7   
24795 2   
24796 1   
24797 7   
24798 1   
24799 10  
24800 7   
24801 10  
24802 2   
24803 5   
24804 3   
24805 92  
24806 50  
24807 6   
24808 8   
24809 4   
24810 63  
24811 4   
24812 9   
24813 5   
24814 8   
24815 4   
24816 9   
24817 9   
24818 10  
24819 1   
24820 1   
24821 10  
24822 2   
24823 4   
24824 3   
24825 3   
24826 7   
24827 8   
24828 8   
24829 10  
24830 1   
24831 6   
24832 6   
24833 5   
24834 7   
24835 10  
24836 10  
24837 7   
24838 8   
24839 4   
24840 8   
24841 9   
24842 4   
24843 9   
24844 2   
24845 4   
24846 75  
24847 2   
24848 8   
24849 3   
24850 63  
24851 3   
24852 4   
24853 6   
24854 8   
24855 8   
24856 10  
24857 6   
24858 7   
24859 7   
24860 6   
24861 5   
24862 4   
24863 6   
24864 6   
24865 5   
24866 3   
24867 2   
24868 4   
24869 7   
24870 10  
24871 9   
24872 3   
24873 7   
24874 4   
24875 5   
24876 8   
24877 2   
24878 6   
24879 5   
24880 8   
24881 6   
24882 51  
24883 2   
24884 7   
24885 4   
24886 7   
24887 1   
24888 2   
24889 6   
24890 8   
24891 91  
24892 9   
24893 3   
24894 5   
24895 8   
24896 10  
24897 8   
24898 6   
24899 7   
24900 4   
24901 6   
24902 5   
24903 9   
24904 6   
24905 1   
24906 6   
24907 8   
24908 5   
24909 2   
24910 6   
24911 9   
24912 4   
24913 8   
24914 7   
24915 54  
24916 8   
24917 3   
24918 1   
24919 6   
24920 6   
24921 7   
24922 5   
24923 7   
24924 3   
24925 1   
24926 3   
24927 1   
24928 65  
24929 2   
24930 6   
24931 3   
24932 10  
24933 6   
24934 9   
24935 100 
24936 7   
24937 3   
24938 2   
24939 8   
24940 6   
24941 1   
24942 10  
24943 4   
24944 8   
24945 2   
24946 2   
24947 2   
24948 6   
24949 5   
24950 5   
24951 1   
24952 7   
24953 9   
24954 3   
24955 1   
24956 8   
24957 7   
24958 6   
24959 3   
24960 3   
24961 6   
24962 10  
24963 90  
24964 10  
24965 8   
24966 5   
24967 7   
24968 3   
24969 2   
24970 5   
24971 7   
24972 9   
24973 10  
24974 9   
24975 4   
24976 8   
24977 5   
24978 10  
24979 65  
24980 4   
24981 5   
24982 8   
24983 4   
24984 1   
24985 4   
24986 10  
24987 9   
24988 8   
24989 6   
24990 10  
24991 7   
24992 4   
24993 9   
24994 55  
24995 4   
24996 3   
24997 9   
24998 2   
24999 4   
25000 7   
25001 6   
DEPOT_SECTION
1
-1
EOF
