NAME : XML5000_2173_01
COMMENT : Generated as the XML100 dataset from the CVRPLIB
TYPE : CVRP
DIMENSION : 5001
EDGE_WEIGHT_TYPE : EUC_2D
CAPACITY : 149
NODE_COORD_SECTION
1    5000 5000
2    6888 3641
3    2375 8590
4    7093 6671
5    6660 4649
6    8660 1113
7    8816 6953
8    8535 6780
9    3629 5178
10   5625 5036
11   6403 7262
12   820  2109
13   2436 4279
14   7089 2659
15   7811 1564
16   4182 5031
17   8443 8169
18   4513 1729
19   4990 9773
20   8347 7965
21   8824 553 
22   4102 4388
23   9880 5257
24   7401 1723
25   6193 3155
26   6663 2337
27   3954 5572
28   7131 9203
29   280  2095
30   8128 593 
31   4400 3745
32   3192 4835
33   6989 8764
34   758  9138
35   2151 1393
36   361  9125
37   3737 3125
38   8387 8231
39   9055 6848
40   8724 8174
41   8857 5961
42   3273 9824
43   2548 8268
44   8020 1305
45   3125 8565
46   2792 1250
47   2682 9684
48   2410 6833
49   2980 4476
50   3632 3843
51   7925 820 
52   7943 4984
53   7443 6651
54   5396 6078
55   8711 5465
56   9620 7901
57   6305 1285
58   8373 8740
59   9664 3088
60   8033 9106
61   2260 1958
62   6341 3872
63   5342 2122
64   4930 4079
65   6781 4750
66   3368 357 
67   7234 1892
68   2562 3674
69   8099 312 
70   6182 5619
71   453  901 
72   9723 5358
73   7627 8837
74   5053 6440
75   2724 8018
76   1403 9138
77   535  2365
78   2111 83  
79   5979 5043
80   999  1490
81   5440 8876
82   3364 603 
83   9544 9226
84   4868 3415
85   8225 147 
86   6556 512 
87   7075 8752
88   6815 7385
89   1605 3644
90   2259 9537
91   2899 9387
92   6542 2045
93   8935 9161
94   9150 7532
95   5609 6753
96   9479 4783
97   2102 7866
98   847  9055
99   6878 840 
100  7984 1506
101  170  431 
102  7234 9046
103  8471 8821
104  59   7275
105  4604 6171
106  1949 2362
107  8321 9889
108  3436 3510
109  9182 2657
110  4771 4951
111  1635 9386
112  2819 9793
113  3229 6303
114  9991 7399
115  4259 3188
116  4056 1700
117  7971 9121
118  9554 592 
119  2573 2353
120  8575 8571
121  7075 3228
122  6248 5373
123  165  3040
124  2478 7989
125  4053 4369
126  1534 103 
127  5035 9747
128  5339 7900
129  7014 8879
130  794  5103
131  9833 9869
132  1215 2726
133  4223 8051
134  2622 3316
135  4652 9061
136  3392 998 
137  7163 7716
138  8778 7732
139  698  1553
140  8234 2132
141  7300 4021
142  5656 8545
143  3574 3036
144  1438 1243
145  8455 2176
146  7350 8141
147  3649 7034
148  1607 2182
149  993  1297
150  4648 8052
151  2584 9517
152  6716 5569
153  2517 3888
154  3746 6178
155  2331 4616
156  8983 786 
157  7764 667 
158  2847 8198
159  9827 3660
160  5714 4965
161  810  5926
162  3637 1826
163  9143 8599
164  7765 2472
165  3961 7015
166  302  4187
167  1338 278 
168  1091 8242
169  473  3547
170  5747 1612
171  5497 2849
172  6584 1027
173  4252 4762
174  776  5872
175  1163 4409
176  2121 8819
177  855  1863
178  8114 5453
179  7005 9651
180  3292 9500
181  6841 5191
182  4304 8508
183  8028 7234
184  7178 3637
185  8988 3560
186  1637 9434
187  5475 5695
188  7550 7135
189  246  4274
190  5455 6323
191  8453 7927
192  2286 4023
193  2335 8543
194  2535 706 
195  6785 7906
196  8381 4455
197  5764 5916
198  5088 5274
199  5602 4425
200  4217 8703
201  9054 8437
202  1684 4547
203  5060 2662
204  7306 7622
205  1082 6102
206  3412 9241
207  209  1314
208  208  6080
209  662  7591
210  3226 132 
211  6920 5468
212  4946 7410
213  878  1204
214  2697 3206
215  8624 5543
216  8865 6708
217  4390 360 
218  45   3683
219  4351 4197
220  5505 3867
221  6667 7811
222  3134 5149
223  1246 4095
224  9718 8157
225  5066 2688
226  7799 4859
227  899  7591
228  3224 6293
229  6264 8020
230  6935 5380
231  9379 7663
232  9418 4837
233  4090 9743
234  1972 7609
235  9032 5709
236  7414 7638
237  729  3218
238  1145 4184
239  779  5850
240  1443 7977
241  5750 1352
242  7151 8210
243  9010 6162
244  2238 9541
245  49   9901
246  1511 9661
247  9943 5267
248  1163 5319
249  1016 8869
250  6421 1544
251  9640 787 
252  700  6484
253  1851 6923
254  7742 9573
255  9412 2453
256  8765 975 
257  8198 1338
258  7886 4406
259  7021 4993
260  9725 49  
261  7827 8348
262  6629 7824
263  1831 6625
264  3846 6086
265  3036 7351
266  7231 1616
267  6077 6901
268  1213 4000
269  2538 6937
270  802  3638
271  8599 2016
272  7844 438 
273  5516 6411
274  7054 6382
275  3692 6269
276  4195 592 
277  5868 1694
278  1021 67  
279  5546 2170
280  7625 1177
281  2515 5654
282  1923 7844
283  7993 5354
284  5347 5722
285  2797 4330
286  6277 1930
287  7814 5384
288  7787 1061
289  6925 2371
290  9992 6678
291  8880 2979
292  6685 9695
293  3722 9958
294  2831 5866
295  4931 927 
296  7125 5407
297  4904 9095
298  2641 4300
299  4029 2926
300  4132 8693
301  6783 6869
302  9915 1814
303  3090 4714
304  1446 5959
305  1962 3344
306  3444 2593
307  2509 1959
308  8576 9797
309  4103 656 
310  863  9368
311  3382 6566
312  7128 9037
313  4811 7407
314  266  6973
315  9596 9049
316  9174 3125
317  1982 5741
318  3241 3949
319  6013 9692
320  5368 2760
321  2946 8486
322  9127 9530
323  1600 6035
324  7247 8341
325  9710 5810
326  3528 8522
327  9656 5402
328  5973 2307
329  4894 5238
330  1895 6361
331  577  8881
332  367  9205
333  1878 4423
334  7121 2188
335  2305 455 
336  4708 6773
337  2049 6794
338  190  6264
339  7538 2698
340  6926 5073
341  3277 8898
342  5136 6207
343  7524 2792
344  617  3496
345  6880 9132
346  4909 5361
347  192  7440
348  1712 5301
349  2193 2070
350  3846 1368
351  7082 283 
352  2919 7664
353  3853 6889
354  2965 9841
355  1016 3168
356  2138 5804
357  4537 7837
358  454  3719
359  811  9502
360  7800 6929
361  4873 2645
362  3218 5902
363  7939 6827
364  2115 4040
365  5293 5585
366  2135 9307
367  6271 7392
368  9144 5237
369  3400 5391
370  8756 3504
371  3431 6932
372  5308 9337
373  9456 1062
374  8411 9089
375  6891 1259
376  8523 9023
377  8494 6482
378  2584 3866
379  5293 539 
380  651  9277
381  6944 9990
382  586  9240
383  3241 4029
384  6628 7235
385  5290 5050
386  4515 5917
387  5193 8805
388  1728 9513
389  2399 9849
390  5046 8149
391  5769 954 
392  5307 6999
393  755  4210
394  1957 287 
395  1564 8829
396  3653 2349
397  7742 2987
398  4707 5823
399  3911 6174
400  9351 5541
401  1012 7462
402  5308 1998
403  4187 1963
404  255  5591
405  3928 7734
406  8337 8176
407  2163 545 
408  2618 6534
409  857  7561
410  2026 3574
411  9030 7342
412  2544 7630
413  2647 1203
414  5161 8576
415  3953 9746
416  2265 5859
417  595  7315
418  4329 186 
419  7635 1328
420  9186 5982
421  2742 2095
422  4512 3239
423  4141 8976
424  8410 8521
425  3688 6313
426  6938 7333
427  4078 149 
428  3965 2200
429  3291 7400
430  9348 3960
431  8548 3742
432  7580 2712
433  3227 8320
434  7937 6678
435  5165 7651
436  2844 752 
437  297  885 
438  1859 9133
439  8541 6687
440  7360 6631
441  9422 5741
442  3018 18  
443  71   8229
444  9074 233 
445  7415 5697
446  3112 5596
447  7267 3133
448  6949 9500
449  9722 262 
450  8242 5982
451  53   7546
452  5033 2209
453  5246 9045
454  2012 6032
455  9322 3471
456  9351 859 
457  8533 7516
458  5210 1405
459  5269 1282
460  7522 3624
461  154  8009
462  9447 7609
463  8357 5721
464  1712 7129
465  9472 2025
466  5404 8076
467  8028 4786
468  1486 2684
469  5669 4127
470  792  7133
471  7812 5052
472  300  1435
473  5285 7856
474  1997 9539
475  9466 5110
476  8707 9461
477  3033 6413
478  2237 3489
479  2716 2612
480  3144 9693
481  4213 4138
482  601  9236
483  8636 9248
484  4437 7398
485  2264 9270
486  1226 8477
487  6861 8391
488  9442 7396
489  3308 3299
490  813  3371
491  3008 9441
492  992  950 
493  679  878 
494  7427 8783
495  5130 5151
496  546  6537
497  7201 6391
498  7536 3359
499  5197 7929
500  4363 6719
501  4773 6924
502  288  3886
503  465  2753
504  8571 8755
505  2563 971 
506  5222 7223
507  6423 4865
508  5431 1900
509  625  3629
510  7537 5488
511  3741 5727
512  3737 8617
513  5049 1404
514  9328 8364
515  1834 1218
516  8384 9431
517  8191 2730
518  1850 6836
519  726  5078
520  9007 7456
521  7352 3749
522  351  9168
523  2393 9127
524  9293 2150
525  8066 5888
526  8256 2443
527  1998 8751
528  5252 4099
529  7548 7072
530  5722 8977
531  8940 4438
532  2171 9402
533  4335 8621
534  6152 8333
535  1371 443 
536  8977 8327
537  8921 6213
538  8799 1107
539  6570 5613
540  8121 7576
541  746  7314
542  3189 4547
543  6094 763 
544  2006 841 
545  7356 6196
546  7317 5418
547  6125 5480
548  6841 2134
549  8343 3672
550  2667 2758
551  4720 2481
552  2209 7573
553  4586 1640
554  6255 9494
555  6764 3905
556  5202 6787
557  3030 184 
558  6205 9619
559  2904 1139
560  9920 5934
561  4825 6596
562  4114 3483
563  2201 6969
564  4248 815 
565  4141 7600
566  1000 5620
567  8931 2152
568  2961 2676
569  345  6925
570  8794 4395
571  4008 4148
572  9452 6539
573  6897 9452
574  6067 4301
575  6887 2507
576  5361 1772
577  5660 8314
578  9880 3541
579  1284 5633
580  1226 8777
581  7160 426 
582  9099 2768
583  6794 2335
584  7615 4774
585  7694 4490
586  2340 6153
587  598  5986
588  1813 4352
589  7381 6369
590  6363 9999
591  1668 8890
592  1440 4703
593  6129 3415
594  1106 9151
595  4123 4246
596  8651 8007
597  9286 2098
598  1197 7607
599  7922 7532
600  9020 4977
601  4769 9751
602  9074 9999
603  9905 8925
604  6206 8162
605  6001 8427
606  3405 8047
607  6286 6028
608  1040 9312
609  6005 3147
610  118  3644
611  66   5221
612  3831 6694
613  9651 4244
614  9422 9495
615  8646 2725
616  6905 1899
617  8676 19  
618  2768 2180
619  2542 7385
620  4533 6088
621  6354 8026
622  9628 4035
623  6660 9783
624  2859 2298
625  8775 5407
626  5922 4588
627  2450 5734
628  2391 972 
629  386  7256
630  7439 2067
631  3190 8981
632  3914 1259
633  9007 8771
634  4316 28  
635  5459 3300
636  9249 5905
637  5127 3833
638  9666 4311
639  5623 9027
640  4808 2803
641  8653 2578
642  7061 2309
643  9181 9112
644  2282 7514
645  8194 2360
646  7503 7461
647  6088 4432
648  2012 8371
649  7251 5439
650  9220 9116
651  4930 7603
652  9553 1724
653  5062 2763
654  2125 2553
655  982  4433
656  5638 8639
657  1280 5778
658  2813 1281
659  4503 5187
660  9085 887 
661  4594 444 
662  5581 4691
663  5284 1944
664  1192 7942
665  3093 4524
666  2579 6080
667  4482 4859
668  7002 9194
669  612  8363
670  3446 8358
671  5414 7079
672  3081 8322
673  799  2355
674  8072 2475
675  566  7770
676  6043 4595
677  1725 6848
678  8757 4899
679  8424 7433
680  2944 6603
681  1794 1452
682  3115 626 
683  3262 82  
684  5653 6919
685  8586 6857
686  9058 3482
687  4170 7556
688  9368 4327
689  7470 8830
690  8550 2923
691  8277 8865
692  2956 7968
693  4249 2949
694  3227 1516
695  7240 9898
696  7079 5592
697  9739 6646
698  9665 7280
699  923  3462
700  3790 5985
701  48   4123
702  2250 6894
703  6933 1125
704  162  5273
705  6563 5109
706  1111 8012
707  1877 1990
708  1751 6566
709  6312 1104
710  4405 1778
711  5806 9833
712  3243 3251
713  7326 4864
714  1502 1344
715  6543 825 
716  6584 1297
717  9602 6281
718  4766 2441
719  666  9302
720  9869 1391
721  4795 752 
722  4477 2529
723  7446 4196
724  6058 3444
725  9081 5346
726  3502 596 
727  2526 8996
728  7624 5584
729  1161 2918
730  7587 3707
731  9700 1441
732  8664 4415
733  5129 9946
734  7598 1611
735  6013 4496
736  470  438 
737  6645 7671
738  1685 8130
739  7022 9197
740  1257 1756
741  7143 4729
742  9364 2954
743  9728 7974
744  5560 6392
745  326  5656
746  1762 9369
747  5723 1445
748  5451 5845
749  3891 6922
750  483  5614
751  4163 8462
752  1180 8261
753  922  9656
754  9814 9561
755  8028 3614
756  1235 8016
757  2279 2267
758  8575 4932
759  4450 1333
760  1027 1399
761  3141 9331
762  1508 6965
763  2777 9832
764  4371 3764
765  5090 1434
766  7143 7700
767  878  9578
768  9903 1005
769  5841 1833
770  2403 214 
771  643  4045
772  392  7649
773  2836 5493
774  8961 2668
775  5456 40  
776  2040 2300
777  2946 2772
778  1135 3263
779  9591 9873
780  2280 7723
781  5368 1232
782  1425 5462
783  2698 1531
784  3032 5932
785  971  2648
786  9242 2599
787  9927 1227
788  9596 7340
789  5374 8926
790  2426 9458
791  7593 7834
792  2480 3344
793  6668 9748
794  7347 9875
795  6934 3757
796  4280 3058
797  6310 1710
798  6526 8503
799  1022 4936
800  4787 2094
801  2055 1586
802  6270 5611
803  1316 3319
804  9046 3655
805  3238 2221
806  8838 5142
807  2467 8154
808  8298 8182
809  8462 6818
810  9513 9144
811  6837 4019
812  4721 7570
813  4422 7411
814  7148 5263
815  1992 8227
816  7775 4358
817  5127 9071
818  2588 8080
819  1094 3868
820  305  6238
821  1181 2474
822  3229 426 
823  8215 3912
824  690  7696
825  4224 7787
826  1587 1945
827  9743 6185
828  8744 5681
829  6894 7988
830  8595 7744
831  1901 2463
832  5179 4124
833  2108 819 
834  1622 2293
835  457  8506
836  1124 317 
837  3787 2020
838  7382 7032
839  9234 6476
840  2633 8386
841  141  4057
842  5493 8988
843  2072 5136
844  8065 2331
845  745  2409
846  5534 7990
847  8998 7203
848  9750 6564
849  2129 2005
850  191  5499
851  5186 5199
852  827  2463
853  8564 1041
854  7843 8891
855  4866 3229
856  4525 9879
857  7177 3585
858  3239 4257
859  6405 7084
860  3513 6662
861  6125 5542
862  2640 9846
863  6325 4831
864  6875 6532
865  4817 8515
866  5021 9336
867  4573 6840
868  5516 1386
869  4269 9428
870  1098 7734
871  6282 6019
872  6267 6907
873  6794 3249
874  5889 6455
875  4504 1095
876  4295 4347
877  6292 3455
878  443  3250
879  5953 5582
880  4692 7487
881  3360 9457
882  6497 1939
883  9886 7167
884  4314 1873
885  8885 843 
886  2685 5614
887  5169 442 
888  2564 1749
889  7612 2776
890  6308 9181
891  2200 3859
892  1406 7457
893  5236 9496
894  4699 7896
895  1188 8805
896  9275 2607
897  1065 1571
898  1310 5865
899  2496 3276
900  5646 8108
901  7695 4646
902  1686 4850
903  704  1605
904  3108 8758
905  4449 9281
906  1790 5229
907  1075 3570
908  8694 5241
909  8145 28  
910  9091 3990
911  929  5466
912  4197 2379
913  1108 8355
914  3989 9757
915  5754 585 
916  388  5744
917  7259 1808
918  2104 8494
919  1074 3155
920  3456 6270
921  2254 2210
922  9748 9819
923  9540 9533
924  9358 9564
925  3579 5396
926  8942 8991
927  975  4855
928  7038 1518
929  8318 7331
930  4049 4459
931  2623 2554
932  7420 6056
933  331  6272
934  8539 5799
935  1620 3819
936  9842 1607
937  1203 9135
938  9578 1102
939  6103 9690
940  8844 3421
941  2567 8918
942  7372 9916
943  4882 3051
944  5904 6450
945  3517 4945
946  3888 4683
947  7771 1633
948  5801 6651
949  8878 2515
950  4689 9600
951  7240 9312
952  6614 1583
953  6604 5305
954  5605 7346
955  7991 6562
956  5094 803 
957  8485 9485
958  4650 8085
959  5164 8036
960  2885 7866
961  2836 2886
962  6524 2708
963  7371 4974
964  6957 9864
965  6921 946 
966  2969 5429
967  966  1786
968  5278 9330
969  4261 5315
970  2472 441 
971  4791 5662
972  4191 7174
973  8074 1995
974  5496 7987
975  4364 1504
976  3392 4372
977  3129 8997
978  9744 7848
979  8385 814 
980  979  2926
981  6692 6256
982  150  4691
983  1374 8427
984  5504 2768
985  9412 1269
986  2676 5349
987  3678 1587
988  7999 7029
989  1873 1746
990  5371 8858
991  3533 9431
992  2206 4623
993  2792 2583
994  2605 355 
995  6227 7248
996  3797 5436
997  1388 6668
998  8975 4544
999  4755 27  
1000 9561 6616
1001 5568 3910
1002 3904 4038
1003 234  8564
1004 7833 9295
1005 8157 8323
1006 6339 1255
1007 5855 3491
1008 4655 1235
1009 5149 7663
1010 3954 5119
1011 2172 773 
1012 1341 5074
1013 8893 4381
1014 6517 411 
1015 6317 1241
1016 5835 8284
1017 1210 6908
1018 7981 102 
1019 1937 7413
1020 9800 595 
1021 4737 488 
1022 4088 4675
1023 5642 564 
1024 9740 5067
1025 6163 5376
1026 4690 1023
1027 9095 5078
1028 4427 1657
1029 4543 3334
1030 2052 3849
1031 3852 3694
1032 9169 8103
1033 5400 9254
1034 200  6059
1035 8748 7751
1036 6044 4060
1037 5038 8152
1038 2244 3515
1039 7446 5957
1040 8958 6891
1041 4473 9453
1042 5198 5946
1043 7705 2990
1044 7922 2259
1045 8417 2835
1046 3277 1545
1047 3656 6043
1048 9875 1857
1049 6810 2828
1050 9369 7197
1051 9199 343 
1052 229  4752
1053 5010 6863
1054 3397 1617
1055 2297 357 
1056 6606 5124
1057 6822 7135
1058 414  3319
1059 1618 3025
1060 3724 2803
1061 6368 2385
1062 4500 3104
1063 4873 9437
1064 8983 6069
1065 3633 630 
1066 3606 4637
1067 5559 4090
1068 6601 7401
1069 5906 7884
1070 6913 5772
1071 2164 1205
1072 4986 535 
1073 3252 3540
1074 4387 6836
1075 4338 7342
1076 5223 6098
1077 9377 7503
1078 4773 8787
1079 3980 4223
1080 5239 3738
1081 2867 3136
1082 5827 2151
1083 7786 4790
1084 4689 6843
1085 4910 1256
1086 8762 9817
1087 1075 2763
1088 7097 1067
1089 5985 6297
1090 7836 8043
1091 7560 6572
1092 4045 4036
1093 4165 5362
1094 6904 6127
1095 321  4559
1096 7553 8207
1097 7475 7471
1098 7613 8429
1099 7175 7466
1100 2631 8700
1101 1730 4677
1102 1518 9442
1103 9365 1703
1104 2300 2182
1105 1736 4634
1106 4312 2366
1107 5397 3417
1108 9929 5659
1109 2771 316 
1110 4779 4235
1111 2610 6318
1112 4540 6181
1113 6670 2488
1114 85   157 
1115 4372 9088
1116 2377 8471
1117 6991 3403
1118 5187 9362
1119 8572 8084
1120 1800 8989
1121 9160 6162
1122 4830 5744
1123 5980 8558
1124 5750 9340
1125 9850 2317
1126 3172 4628
1127 9504 8445
1128 5387 4019
1129 8528 8077
1130 883  7839
1131 6230 6457
1132 2811 4820
1133 4243 2844
1134 1668 7155
1135 2229 6683
1136 5772 4781
1137 6649 895 
1138 3207 7116
1139 2953 200 
1140 1342 116 
1141 4658 8418
1142 8180 2059
1143 132  6381
1144 1929 7211
1145 4193 8043
1146 4617 7174
1147 970  9731
1148 9549 2592
1149 4381 1798
1150 3000 2398
1151 9154 1683
1152 7869 4274
1153 8128 5945
1154 6612 7551
1155 6715 3859
1156 8058 1599
1157 6607 5181
1158 1997 3282
1159 6098 316 
1160 1359 6629
1161 3642 1333
1162 4776 6232
1163 8447 2429
1164 6633 2401
1165 4981 4896
1166 6511 8697
1167 1068 4429
1168 2420 6805
1169 8458 9319
1170 578  700 
1171 7802 5379
1172 3258 1082
1173 6828 9575
1174 7561 4560
1175 4795 4209
1176 4190 7952
1177 7416 1303
1178 4459 9141
1179 5502 2340
1180 5514 8456
1181 1354 6878
1182 1351 4762
1183 1953 1609
1184 7020 2183
1185 4445 2421
1186 2630 529 
1187 80   5334
1188 9554 7581
1189 371  3286
1190 7146 9623
1191 905  5701
1192 4475 962 
1193 8876 9   
1194 206  6858
1195 4390 840 
1196 3079 769 
1197 7792 9705
1198 7862 2006
1199 7599 5150
1200 3946 9894
1201 8492 6790
1202 279  8885
1203 7598 8559
1204 3184 672 
1205 4653 3719
1206 6026 8577
1207 89   2018
1208 1133 8872
1209 2665 2579
1210 9215 576 
1211 6161 3557
1212 3951 7799
1213 7053 5571
1214 1156 1970
1215 2360 9606
1216 998  4074
1217 4753 4864
1218 4462 2520
1219 3772 2743
1220 845  8934
1221 1548 946 
1222 3050 5336
1223 6437 2292
1224 5590 3656
1225 4241 282 
1226 4561 4826
1227 8881 2606
1228 9958 9316
1229 7350 6978
1230 9939 1180
1231 3071 7688
1232 8627 1660
1233 7638 7714
1234 379  4622
1235 2723 6806
1236 6224 8317
1237 6062 775 
1238 5547 8534
1239 9115 2381
1240 7499 7549
1241 7849 7229
1242 6035 8101
1243 8513 2405
1244 5054 298 
1245 8534 7784
1246 5214 3813
1247 9468 5696
1248 7887 809 
1249 4539 5602
1250 103  5565
1251 7057 2139
1252 5296 3628
1253 1942 2708
1254 5069 6723
1255 1736 3521
1256 4090 9789
1257 4701 8299
1258 2733 2683
1259 5112 4601
1260 5422 9966
1261 4003 2695
1262 3489 2368
1263 2868 5796
1264 3514 5904
1265 8387 8027
1266 207  9004
1267 9363 2588
1268 4158 5071
1269 5176 4551
1270 9797 5585
1271 2571 5183
1272 4770 2123
1273 9185 3951
1274 8445 5889
1275 7249 885 
1276 4215 2595
1277 185  2158
1278 1828 7673
1279 3727 2120
1280 5182 9733
1281 6707 2144
1282 7466 4957
1283 926  3538
1284 6904 3243
1285 4576 642 
1286 3928 6731
1287 9288 4900
1288 8199 2070
1289 7508 2766
1290 5618 3070
1291 9775 534 
1292 3267 6244
1293 7092 2499
1294 7975 3194
1295 7960 2940
1296 6904 8699
1297 4221 6826
1298 2962 8612
1299 7604 2433
1300 2500 7320
1301 938  1431
1302 2031 5348
1303 8808 8187
1304 3718 229 
1305 6922 130 
1306 336  6631
1307 4318 7477
1308 2830 5150
1309 414  6787
1310 9852 3773
1311 1653 5121
1312 7952 6888
1313 5998 2631
1314 2597 9837
1315 2602 3225
1316 401  4191
1317 2295 9846
1318 886  7155
1319 4472 7619
1320 2048 8619
1321 9862 9218
1322 1133 2792
1323 2437 2171
1324 7297 8295
1325 3379 3053
1326 628  1640
1327 5892 9044
1328 3175 3528
1329 6002 9377
1330 3204 9642
1331 2510 7345
1332 2210 1360
1333 2838 9976
1334 3248 7876
1335 9208 3793
1336 5842 3631
1337 4235 9449
1338 4750 8742
1339 9918 5526
1340 4129 271 
1341 8754 8774
1342 9669 1722
1343 4258 7052
1344 5148 2356
1345 376  8940
1346 5109 1094
1347 8775 299 
1348 1499 8959
1349 813  3914
1350 8826 4953
1351 3780 747 
1352 8549 7785
1353 8895 5710
1354 7810 9899
1355 321  5391
1356 1197 7   
1357 3197 3831
1358 8935 6896
1359 9641 3428
1360 5591 2074
1361 8613 7036
1362 1451 4953
1363 6701 3648
1364 5171 9694
1365 7138 3280
1366 9064 4707
1367 2859 7463
1368 2160 9094
1369 9617 2149
1370 9798 380 
1371 5273 7192
1372 3625 8821
1373 4985 3077
1374 2553 9433
1375 8795 3245
1376 9561 6632
1377 7097 1923
1378 3673 2280
1379 6134 7777
1380 138  6716
1381 7066 1266
1382 6006 1571
1383 1400 7124
1384 7914 9224
1385 9839 3501
1386 9002 5476
1387 9127 1825
1388 9482 2352
1389 2418 8312
1390 4403 3399
1391 995  9364
1392 2039 2484
1393 2777 864 
1394 1194 6292
1395 6034 7721
1396 6743 1409
1397 4539 7906
1398 1525 1804
1399 5700 4542
1400 4167 5751
1401 6379 2727
1402 2538 9931
1403 4230 5990
1404 4523 7682
1405 1343 3409
1406 2365 8481
1407 127  2102
1408 540  9730
1409 6517 5930
1410 5794 4163
1411 2008 9475
1412 8952 1454
1413 3937 9020
1414 5053 2393
1415 4826 7661
1416 658  1150
1417 2903 3000
1418 897  7809
1419 4140 3037
1420 2903 4441
1421 2567 756 
1422 9740 1941
1423 7282 3075
1424 1347 1059
1425 3968 6862
1426 1130 6694
1427 7553 4718
1428 1848 1082
1429 9354 4345
1430 5839 4907
1431 5130 5973
1432 5224 4924
1433 4983 3227
1434 133  8220
1435 9984 7235
1436 3358 5368
1437 7671 8921
1438 364  6741
1439 5850 1144
1440 1786 7637
1441 4738 3302
1442 1301 2030
1443 7272 9348
1444 2619 6446
1445 937  9492
1446 6766 979 
1447 191  5810
1448 1493 6460
1449 1037 2020
1450 3544 9338
1451 46   9421
1452 5745 4984
1453 9786 613 
1454 6966 7655
1455 8097 2441
1456 3758 7956
1457 1168 5747
1458 4029 4453
1459 7792 2726
1460 5887 4902
1461 677  3071
1462 9940 5562
1463 6788 6758
1464 2965 1600
1465 6207 105 
1466 3792 2308
1467 6728 6764
1468 1768 1451
1469 6063 6293
1470 2491 9612
1471 3835 9587
1472 813  1382
1473 736  4837
1474 6602 6913
1475 5770 1985
1476 1282 8654
1477 8398 4226
1478 220  946 
1479 609  2294
1480 281  8703
1481 6458 9178
1482 5896 1366
1483 843  5346
1484 4141 6170
1485 1234 7259
1486 5374 1980
1487 914  9309
1488 7325 5623
1489 1623 3630
1490 9658 5700
1491 8574 2832
1492 166  1270
1493 3554 1425
1494 6127 4625
1495 6227 9992
1496 1027 120 
1497 3003 8122
1498 7436 5684
1499 1746 1196
1500 6505 2261
1501 9205 1601
1502 447  7347
1503 6388 7167
1504 6235 7373
1505 4409 3994
1506 4451 7007
1507 787  214 
1508 2643 9933
1509 8802 9538
1510 4854 7132
1511 7087 6148
1512 5763 8944
1513 5969 9134
1514 4351 8636
1515 1351 3957
1516 8222 271 
1517 4172 5901
1518 3286 1819
1519 5735 4472
1520 6504 6865
1521 2804 6981
1522 9291 9746
1523 293  6172
1524 9862 8497
1525 5587 32  
1526 7867 2176
1527 9382 5924
1528 9035 3024
1529 1766 3058
1530 6901 9686
1531 5015 875 
1532 6744 8240
1533 125  8949
1534 8763 173 
1535 9037 8710
1536 1362 368 
1537 3900 7311
1538 7221 6026
1539 9306 7665
1540 7960 2871
1541 1067 4920
1542 7650 5147
1543 6650 6739
1544 4057 1802
1545 3340 9858
1546 2575 4347
1547 834  5990
1548 457  27  
1549 3569 6855
1550 6520 4742
1551 9040 9982
1552 7459 3105
1553 3967 7792
1554 8921 2771
1555 5426 6951
1556 7865 2042
1557 5515 8314
1558 303  1259
1559 6226 9680
1560 7445 901 
1561 8408 7308
1562 9580 6839
1563 9616 7160
1564 4363 9964
1565 8701 4752
1566 2597 835 
1567 2247 3892
1568 7044 1504
1569 4796 5707
1570 9088 7919
1571 8934 5419
1572 5084 4331
1573 1453 3428
1574 8194 3755
1575 7646 4816
1576 3181 6109
1577 6338 1036
1578 7057 1165
1579 3539 234 
1580 7536 2040
1581 1365 2130
1582 1931 2994
1583 3937 6772
1584 1832 5339
1585 1419 9200
1586 1974 4106
1587 2992 7051
1588 1842 2500
1589 8254 5064
1590 9387 1654
1591 3726 5408
1592 7773 2797
1593 9206 9350
1594 7714 1519
1595 1850 8272
1596 6265 9301
1597 9693 794 
1598 4562 6219
1599 8740 7307
1600 7575 4967
1601 195  1476
1602 5991 5857
1603 7133 7582
1604 246  9777
1605 2292 7499
1606 5871 7786
1607 3697 4866
1608 9069 294 
1609 3779 7218
1610 3253 2527
1611 2553 5870
1612 2863 3111
1613 3888 6714
1614 66   6191
1615 82   8926
1616 4184 6581
1617 3928 4277
1618 1519 2490
1619 7550 8908
1620 1269 6959
1621 3781 8714
1622 7940 8713
1623 4896 751 
1624 3061 256 
1625 4522 4742
1626 6236 1097
1627 8404 3100
1628 6998 392 
1629 7701 8197
1630 565  6534
1631 2649 2472
1632 4410 7501
1633 8885 4562
1634 7379 7403
1635 8944 4679
1636 4402 970 
1637 2800 9937
1638 6214 5316
1639 3778 2077
1640 251  3105
1641 6963 6332
1642 4628 1271
1643 4883 1897
1644 6373 43  
1645 7344 8358
1646 8588 3618
1647 9406 8642
1648 7410 8548
1649 1477 7512
1650 2544 4251
1651 4409 2048
1652 9548 3569
1653 8990 144 
1654 248  568 
1655 4214 7147
1656 6301 1049
1657 587  754 
1658 9362 2142
1659 8374 288 
1660 5190 1605
1661 2914 2042
1662 4603 1012
1663 9606 5286
1664 5734 8198
1665 7098 6784
1666 8868 9583
1667 3690 6221
1668 6063 446 
1669 9723 3065
1670 6304 7495
1671 1225 1018
1672 5865 5322
1673 1476 5850
1674 9281 8264
1675 6154 5006
1676 200  2589
1677 4969 3966
1678 1658 3723
1679 8218 8913
1680 1506 5551
1681 5692 961 
1682 6436 6495
1683 5849 2152
1684 6812 8217
1685 6030 5487
1686 8581 1666
1687 4192 1180
1688 966  3628
1689 4739 5007
1690 285  6300
1691 9007 4205
1692 57   9899
1693 6571 8036
1694 2026 1521
1695 2434 8646
1696 7396 741 
1697 160  5998
1698 1901 7652
1699 8043 4260
1700 3696 6429
1701 9281 7986
1702 2742 3123
1703 7440 8896
1704 5079 5173
1705 879  359 
1706 8148 5139
1707 1131 6008
1708 8293 6524
1709 5370 4262
1710 2089 3475
1711 5213 9028
1712 8534 3253
1713 1750 6910
1714 2584 3370
1715 3571 156 
1716 7606 6423
1717 2368 3886
1718 2128 904 
1719 7231 922 
1720 6899 8357
1721 109  4358
1722 3681 8869
1723 8600 7235
1724 9446 6516
1725 1496 7204
1726 4035 5087
1727 3145 5732
1728 172  8863
1729 9237 849 
1730 216  6304
1731 2615 4103
1732 2133 9683
1733 41   7086
1734 5181 8338
1735 5890 4329
1736 2816 3865
1737 7236 2415
1738 7329 6286
1739 3393 1167
1740 4071 9604
1741 7913 1392
1742 166  1058
1743 9999 7624
1744 8925 6404
1745 766  8946
1746 1393 1742
1747 4449 8162
1748 680  25  
1749 309  1780
1750 3524 4071
1751 3032 5992
1752 9773 2765
1753 7740 3435
1754 4003 1037
1755 9191 9868
1756 9508 5960
1757 9139 2394
1758 7327 8189
1759 3060 2713
1760 2691 510 
1761 9204 4587
1762 4793 2764
1763 426  3797
1764 2248 7325
1765 4857 5743
1766 6091 3701
1767 2161 6135
1768 2008 7946
1769 7969 8660
1770 3773 731 
1771 967  2914
1772 8281 208 
1773 5742 8170
1774 4596 1368
1775 2134 5307
1776 1033 3976
1777 5109 7595
1778 3646 5662
1779 5094 9819
1780 7960 331 
1781 1964 2729
1782 141  5781
1783 9773 3531
1784 3271 9   
1785 118  8436
1786 2159 3350
1787 5812 3703
1788 257  6133
1789 5392 5852
1790 7421 339 
1791 1620 6168
1792 6351 2275
1793 1679 4515
1794 3997 671 
1795 3728 9928
1796 6591 19  
1797 574  3549
1798 5576 2556
1799 5699 2225
1800 2018 7569
1801 6012 6296
1802 9446 3347
1803 8966 3950
1804 4160 2331
1805 9544 7203
1806 8560 2565
1807 9089 8436
1808 6294 1229
1809 502  9691
1810 9608 4726
1811 7016 8693
1812 4592 1250
1813 1931 6013
1814 4560 8545
1815 4697 27  
1816 3272 1149
1817 2655 5655
1818 2862 9230
1819 555  2296
1820 7046 9612
1821 8954 173 
1822 7088 3896
1823 8793 8374
1824 8758 2976
1825 8578 4881
1826 5792 8695
1827 8302 6390
1828 9049 220 
1829 4646 4297
1830 1722 2378
1831 862  4839
1832 2995 6909
1833 6042 7776
1834 9491 5297
1835 6244 2097
1836 496  4470
1837 5651 9623
1838 9446 8721
1839 3049 1523
1840 3634 5653
1841 1775 9297
1842 8003 1359
1843 427  1226
1844 2720 5152
1845 377  637 
1846 7923 5266
1847 906  3985
1848 964  1062
1849 8748 2253
1850 618  5712
1851 2184 3147
1852 5019 655 
1853 1142 3088
1854 6856 2986
1855 5171 4741
1856 8488 9428
1857 8003 562 
1858 8579 8009
1859 3449 4283
1860 4928 4075
1861 5930 5473
1862 6706 585 
1863 157  3363
1864 9011 621 
1865 4296 1469
1866 6947 622 
1867 3278 7965
1868 4205 7404
1869 9933 3053
1870 8492 1248
1871 193  954 
1872 9894 3996
1873 4458 7082
1874 5703 1350
1875 1211 428 
1876 731  2936
1877 6213 1678
1878 5475 4415
1879 8293 5870
1880 602  7583
1881 6654 8287
1882 4255 1773
1883 5892 9411
1884 6367 7170
1885 6459 8287
1886 9435 34  
1887 5740 9596
1888 5947 6102
1889 650  2917
1890 1522 4293
1891 8129 7931
1892 9932 2821
1893 7215 3804
1894 927  9974
1895 798  5983
1896 105  7377
1897 1433 8513
1898 3435 3931
1899 6477 8105
1900 5136 3091
1901 1725 2107
1902 5448 4857
1903 3259 3607
1904 9137 2982
1905 4178 8537
1906 9370 9850
1907 7757 6052
1908 4807 8216
1909 9671 5479
1910 2872 942 
1911 4554 8629
1912 1655 5685
1913 88   290 
1914 8746 6529
1915 828  5728
1916 7774 862 
1917 7906 9816
1918 1907 1357
1919 2443 5548
1920 5267 8555
1921 4330 8767
1922 6719 6955
1923 1645 7074
1924 564  8566
1925 773  7973
1926 5019 6549
1927 3831 4016
1928 9359 567 
1929 8476 2103
1930 6728 5197
1931 5334 7088
1932 8857 3911
1933 3481 4384
1934 3296 7088
1935 2489 4526
1936 1487 5832
1937 4394 2874
1938 8674 9807
1939 7493 577 
1940 946  223 
1941 8308 4356
1942 3368 2085
1943 3415 2674
1944 2306 1712
1945 8946 576 
1946 2917 8543
1947 2903 6494
1948 4678 8233
1949 2423 10  
1950 5415 8506
1951 2930 2798
1952 3212 4780
1953 9400 666 
1954 8338 7546
1955 986  7368
1956 5253 5935
1957 1344 8880
1958 6535 6026
1959 5688 2860
1960 7485 6949
1961 5719 9177
1962 4356 9789
1963 5439 732 
1964 9688 3155
1965 354  4477
1966 9920 7382
1967 5707 139 
1968 2678 9773
1969 1111 6001
1970 4781 6787
1971 5165 7886
1972 107  4258
1973 5374 2377
1974 8251 1612
1975 2760 6039
1976 973  8366
1977 5988 6386
1978 6719 1519
1979 1893 7828
1980 8234 4469
1981 5366 2531
1982 9878 1384
1983 8933 4032
1984 3345 3319
1985 662  9148
1986 4797 7716
1987 3919 1873
1988 9086 2497
1989 4066 8733
1990 9774 5514
1991 3710 6581
1992 2832 4068
1993 3559 2662
1994 3876 2543
1995 3579 3884
1996 874  5453
1997 9927 2456
1998 5391 3489
1999 6504 2346
2000 9836 978 
2001 1123 1953
2002 7023 7078
2003 5952 6700
2004 4653 7562
2005 8729 8828
2006 8993 7839
2007 1330 5441
2008 1339 2048
2009 7115 42  
2010 4987 8406
2011 9851 2452
2012 346  3771
2013 9434 6971
2014 8334 3237
2015 1423 404 
2016 1135 2242
2017 7624 2337
2018 9869 5285
2019 1867 7841
2020 6329 8929
2021 8037 640 
2022 9801 8018
2023 1517 2761
2024 7547 802 
2025 9411 6170
2026 6191 9423
2027 8680 271 
2028 6818 7719
2029 6660 4957
2030 9082 4373
2031 2402 124 
2032 2548 8387
2033 2206 521 
2034 6332 1399
2035 9824 8519
2036 5613 4411
2037 3405 8219
2038 5946 8009
2039 2122 9170
2040 4415 6587
2041 2523 7396
2042 5350 6679
2043 8636 4942
2044 1234 713 
2045 2386 991 
2046 2831 5927
2047 9346 9427
2048 9483 89  
2049 776  7695
2050 4334 1821
2051 3001 3658
2052 4182 8131
2053 3071 8550
2054 1294 2769
2055 2177 1987
2056 7955 851 
2057 9421 9154
2058 9538 7793
2059 2074 8832
2060 6610 7077
2061 4807 440 
2062 1138 5851
2063 7277 4635
2064 6739 889 
2065 9692 3073
2066 6625 230 
2067 156  5594
2068 4462 5812
2069 6882 5038
2070 5983 2334
2071 8480 6978
2072 4243 7989
2073 8300 4949
2074 5048 8030
2075 7826 5920
2076 474  4846
2077 9196 3713
2078 1386 1348
2079 3263 5810
2080 2921 877 
2081 8779 1352
2082 1284 4681
2083 7190 9775
2084 6531 5675
2085 5872 893 
2086 3140 9136
2087 7111 690 
2088 9577 9757
2089 2565 6105
2090 5378 611 
2091 5096 5362
2092 2991 7431
2093 7935 2327
2094 2219 7609
2095 8765 6032
2096 9334 1278
2097 7865 796 
2098 3074 6045
2099 2609 2023
2100 2019 5111
2101 6354 3685
2102 9507 714 
2103 8740 1326
2104 7957 6333
2105 5552 8700
2106 5477 9422
2107 5800 6868
2108 7443 6715
2109 5607 997 
2110 5100 2910
2111 4378 2609
2112 5944 9506
2113 5241 4308
2114 8199 7484
2115 6493 399 
2116 1639 5949
2117 5555 4267
2118 3699 8756
2119 6348 9161
2120 9964 6710
2121 4292 4202
2122 4213 8820
2123 5528 3763
2124 4716 2830
2125 9175 6442
2126 3648 5274
2127 3847 4923
2128 1839 2997
2129 8559 6282
2130 2677 4643
2131 2538 975 
2132 3517 1175
2133 1629 2146
2134 5139 5068
2135 7533 8008
2136 7314 9   
2137 5277 9432
2138 6288 8942
2139 923  5730
2140 4881 4601
2141 2734 8567
2142 6002 1802
2143 6772 8624
2144 6763 3847
2145 5756 2751
2146 9908 7469
2147 4480 8949
2148 4135 8207
2149 1175 4414
2150 7312 1865
2151 6720 3342
2152 765  6548
2153 6939 5625
2154 9359 4192
2155 3124 2804
2156 6033 1921
2157 6310 7043
2158 2835 5634
2159 963  6898
2160 1846 263 
2161 8760 2274
2162 1429 3588
2163 3404 4061
2164 4049 8314
2165 356  2303
2166 6330 3750
2167 140  1980
2168 3281 8795
2169 8079 6874
2170 4487 1730
2171 568  6697
2172 7485 9617
2173 5533 5308
2174 9514 3332
2175 2478 990 
2176 9486 1049
2177 6986 5388
2178 9109 6685
2179 1698 3466
2180 6102 7122
2181 6167 8143
2182 5613 829 
2183 316  8891
2184 1747 4951
2185 9810 448 
2186 3997 583 
2187 5526 5464
2188 4132 5587
2189 7588 9350
2190 7527 7212
2191 6166 8858
2192 8833 2628
2193 9426 7847
2194 431  9116
2195 239  7110
2196 5622 2002
2197 2337 5929
2198 9025 2855
2199 7502 713 
2200 216  4160
2201 46   7970
2202 8772 1063
2203 8501 5300
2204 1517 7951
2205 351  9616
2206 7565 5050
2207 9742 1773
2208 5577 9770
2209 1722 2024
2210 9348 8396
2211 370  7942
2212 9695 5368
2213 4960 8656
2214 9280 6782
2215 8590 1597
2216 3806 1638
2217 8426 5887
2218 5929 1613
2219 6858 2792
2220 6438 7652
2221 4899 8367
2222 6436 7750
2223 4425 8321
2224 2664 7820
2225 7656 3777
2226 8968 6487
2227 5932 2855
2228 2207 713 
2229 4622 6567
2230 5271 4727
2231 7548 6902
2232 237  8709
2233 4367 5697
2234 8988 8571
2235 9562 144 
2236 9423 8844
2237 527  4311
2238 3481 4850
2239 4444 9239
2240 757  7549
2241 7366 3104
2242 5168 9910
2243 9439 8086
2244 1676 2047
2245 4789 3813
2246 8140 1886
2247 5412 8632
2248 4135 2536
2249 5049 9687
2250 5189 9348
2251 6784 1812
2252 8216 8763
2253 4799 5902
2254 3774 9846
2255 1877 4287
2256 7180 3697
2257 977  2384
2258 2559 6261
2259 1680 2925
2260 9944 3467
2261 5213 8848
2262 8635 765 
2263 8399 9434
2264 780  9474
2265 152  7859
2266 8637 8348
2267 5622 3927
2268 8273 7539
2269 7790 8485
2270 2537 3695
2271 2795 3112
2272 5167 2715
2273 5636 2308
2274 9602 4953
2275 1960 8191
2276 4086 6821
2277 4285 5750
2278 243  9624
2279 2787 3465
2280 6274 7001
2281 5157 7611
2282 7568 9454
2283 71   7357
2284 201  633 
2285 2535 5897
2286 1242 4760
2287 6810 7924
2288 7081 52  
2289 5328 8388
2290 1721 9842
2291 944  2046
2292 8828 3356
2293 4614 4310
2294 7484 9792
2295 3579 9919
2296 6386 949 
2297 5073 2094
2298 1792 9378
2299 9027 699 
2300 4329 5229
2301 4927 8715
2302 9804 5268
2303 6854 1638
2304 4772 9938
2305 5934 6962
2306 4923 781 
2307 1097 9194
2308 2584 1923
2309 8482 7811
2310 6682 3684
2311 6881 3964
2312 5133 7603
2313 648  2556
2314 6124 2569
2315 8640 6210
2316 6771 1022
2317 5659 9308
2318 91   3139
2319 8049 9289
2320 6902 3640
2321 2103 721 
2322 833  4058
2323 8058 3101
2324 8809 4584
2325 8938 7257
2326 1638 4761
2327 8286 5809
2328 7579 9924
2329 665  7809
2330 2314 5914
2331 520  4252
2332 3301 6806
2333 6421 3436
2334 4822 1322
2335 8160 1730
2336 2816 4380
2337 5556 272 
2338 5983 8683
2339 6611 4946
2340 8978 4342
2341 5765 2883
2342 166  4252
2343 1572 2607
2344 942  2290
2345 6917 2631
2346 4518 9919
2347 5041 6849
2348 4904 5139
2349 9395 7203
2350 8987 7813
2351 1615 4019
2352 9241 5352
2353 871  3560
2354 4786 7796
2355 9693 8816
2356 4443 2621
2357 9051 480 
2358 6388 5527
2359 2032 5547
2360 8942 6623
2361 5909 3439
2362 460  1102
2363 5687 2321
2364 3194 2362
2365 8149 7521
2366 338  8558
2367 2433 5585
2368 1171 229 
2369 4852 9149
2370 4911 6364
2371 6340 7607
2372 3365 4975
2373 7273 2800
2374 6398 2736
2375 5167 8082
2376 5027 1063
2377 1671 3222
2378 6165 1774
2379 4204 2861
2380 9462 8940
2381 4286 2274
2382 8326 4341
2383 4768 2066
2384 1661 1280
2385 6405 1550
2386 2844 4513
2387 5344 6026
2388 4121 1684
2389 6397 2009
2390 3705 6280
2391 5303 2278
2392 2029 6015
2393 5159 2871
2394 9882 5817
2395 1714 8513
2396 6798 372 
2397 9591 9074
2398 1306 5845
2399 5423 3510
2400 2088 5540
2401 1147 9558
2402 1143 4266
2403 8562 1312
2404 9227 4264
2405 3188 917 
2406 184  7056
2407 2823 8914
2408 7137 5604
2409 6860 9029
2410 3042 2368
2411 3886 5697
2412 4630 6578
2413 9467 8548
2414 7023 7143
2415 2842 5681
2416 9082 273 
2417 1380 6326
2418 3701 9605
2419 5792 8675
2420 6610 1045
2421 9412 6453
2422 3040 7996
2423 9599 4125
2424 5839 1944
2425 4321 5315
2426 7630 7667
2427 5580 8986
2428 3725 5796
2429 8639 1604
2430 1462 3003
2431 6017 8755
2432 5995 6779
2433 703  8259
2434 9661 536 
2435 9401 3164
2436 6305 4628
2437 77   5014
2438 3113 3789
2439 1523 6440
2440 3961 555 
2441 3616 6452
2442 7748 2440
2443 5797 1515
2444 4226 7221
2445 6067 4913
2446 1072 9757
2447 8338 2712
2448 952  3973
2449 8173 3686
2450 7453 3180
2451 9448 5522
2452 8307 5315
2453 6115 4125
2454 4072 8039
2455 1538 5912
2456 5774 6857
2457 6991 4132
2458 1197 2187
2459 7383 2340
2460 2462 826 
2461 3097 8209
2462 9162 6372
2463 3315 9030
2464 8413 7176
2465 2335 5134
2466 647  3853
2467 3519 1648
2468 3711 7982
2469 8286 3446
2470 561  7458
2471 7662 2171
2472 3748 6348
2473 9556 7644
2474 2217 5745
2475 1594 817 
2476 4444 27  
2477 9251 3069
2478 9988 4022
2479 8547 3056
2480 7764 5252
2481 2337 2379
2482 8446 4639
2483 2052 5814
2484 6098 5367
2485 5860 5981
2486 631  1822
2487 4093 3825
2488 6696 9901
2489 6902 9453
2490 659  3654
2491 6179 5654
2492 174  1989
2493 9843 689 
2494 1746 7291
2495 4811 3427
2496 1695 5402
2497 9924 3053
2498 1878 3972
2499 4950 9683
2500 1500 4673
2501 5160 8594
2502 4508 1467
2503 3841 7837
2504 4500 2351
2505 8386 4004
2506 622  1003
2507 8463 7675
2508 5561 3088
2509 5573 1855
2510 6    3945
2511 657  1317
2512 4699 846 
2513 2873 4127
2514 507  5784
2515 7455 5235
2516 7191 1590
2517 817  9918
2518 8330 9049
2519 965  3507
2520 9727 3473
2521 5267 8078
2522 1443 1737
2523 3343 3111
2524 1529 9237
2525 9695 2110
2526 3738 6867
2527 1012 6320
2528 7654 659 
2529 1853 2417
2530 6309 5604
2531 5991 640 
2532 3410 684 
2533 8994 2012
2534 2654 623 
2535 5140 5443
2536 4903 4603
2537 4425 5640
2538 5074 5073
2539 6374 3907
2540 5926 5716
2541 1051 4305
2542 5981 5015
2543 3415 7584
2544 8642 9634
2545 6810 3815
2546 8301 7689
2547 6084 56  
2548 7672 4192
2549 7686 688 
2550 9377 7637
2551 3130 9166
2552 3693 4673
2553 9419 3461
2554 4557 1177
2555 7323 4882
2556 3552 9976
2557 5503 5936
2558 9252 4880
2559 9914 4223
2560 4278 7044
2561 1454 1825
2562 59   9130
2563 3473 2815
2564 1832 1799
2565 9780 8069
2566 9733 3798
2567 6608 376 
2568 5053 1295
2569 3264 1309
2570 6320 199 
2571 325  7497
2572 1985 8216
2573 5606 6514
2574 8772 7017
2575 3244 4411
2576 4829 8756
2577 5587 558 
2578 6848 5712
2579 7473 5219
2580 5319 8223
2581 2877 9965
2582 805  9397
2583 1807 7315
2584 7376 1939
2585 6441 1510
2586 3154 3956
2587 1518 4040
2588 7214 9846
2589 5102 2795
2590 2452 6298
2591 8422 1232
2592 5929 3170
2593 6810 6944
2594 8409 5459
2595 6795 5308
2596 8709 3527
2597 9355 6934
2598 7107 4021
2599 1342 4860
2600 9049 3776
2601 1596 769 
2602 3696 5167
2603 3030 3942
2604 6017 1930
2605 5133 8360
2606 7094 159 
2607 8556 2070
2608 4586 9449
2609 5076 4204
2610 1736 6594
2611 2821 6795
2612 2836 1973
2613 3602 9339
2614 664  9573
2615 3617 1073
2616 9111 873 
2617 777  9226
2618 8704 5926
2619 146  3389
2620 9885 704 
2621 6700 1323
2622 2221 7475
2623 6292 6021
2624 5267 4650
2625 956  2694
2626 8034 8698
2627 2528 289 
2628 6673 9957
2629 6402 201 
2630 4714 5482
2631 6466 4105
2632 4822 5206
2633 9595 6009
2634 5820 4393
2635 9434 2172
2636 2303 1690
2637 10   4847
2638 4642 1376
2639 8966 3929
2640 59   2224
2641 1228 5342
2642 8980 2099
2643 838  5654
2644 8929 2282
2645 9767 6204
2646 8574 2896
2647 3171 3857
2648 5917 730 
2649 2707 564 
2650 5545 2919
2651 5608 9316
2652 5294 9276
2653 9406 6689
2654 7735 6917
2655 3983 2808
2656 9973 7610
2657 8488 9153
2658 9166 8516
2659 6430 3298
2660 7611 9561
2661 7962 6563
2662 6417 5109
2663 5480 8648
2664 8952 4909
2665 7827 7139
2666 7937 8275
2667 6141 823 
2668 4314 4721
2669 6784 990 
2670 8449 3083
2671 4187 7548
2672 3868 3160
2673 8841 7040
2674 4576 1152
2675 8550 9064
2676 1256 4098
2677 6160 6692
2678 609  7993
2679 2510 2596
2680 3515 8185
2681 4278 5199
2682 5156 3918
2683 4509 8672
2684 8582 7427
2685 2109 7864
2686 3843 2909
2687 255  8052
2688 691  2807
2689 6860 5271
2690 400  9490
2691 5049 5596
2692 7203 5858
2693 2451 3689
2694 5437 264 
2695 2504 3756
2696 6741 8988
2697 6561 7440
2698 5964 5849
2699 1196 9752
2700 3348 8060
2701 7560 1085
2702 7578 8049
2703 1731 4314
2704 3625 6355
2705 4368 2477
2706 6573 7329
2707 6399 2182
2708 6049 5433
2709 1776 6463
2710 479  9234
2711 3630 5854
2712 1675 2655
2713 6011 2226
2714 4631 9846
2715 4357 2040
2716 7290 2367
2717 3888 182 
2718 140  1791
2719 7142 889 
2720 3350 1188
2721 9058 4727
2722 7108 9667
2723 4950 8358
2724 6022 7601
2725 5146 8780
2726 3433 4647
2727 3344 5707
2728 6759 1589
2729 2811 2296
2730 8081 7498
2731 6349 6980
2732 4623 1994
2733 1913 5914
2734 2704 9398
2735 9862 2306
2736 3572 9353
2737 8370 9801
2738 5949 3172
2739 2889 4870
2740 3177 3975
2741 1576 7086
2742 8135 2101
2743 7179 209 
2744 2859 5259
2745 1661 7336
2746 3760 9993
2747 3699 3559
2748 1204 3682
2749 942  4978
2750 3083 8643
2751 374  4389
2752 4141 1403
2753 4605 6454
2754 8355 3071
2755 5295 4134
2756 2990 1306
2757 4060 7278
2758 3179 7768
2759 2370 3419
2760 9676 648 
2761 3258 5714
2762 4891 7293
2763 1778 4470
2764 1039 6200
2765 9745 425 
2766 4782 3717
2767 1805 7075
2768 2259 6554
2769 3236 6276
2770 6421 2882
2771 3686 416 
2772 4060 4547
2773 5323 5949
2774 1064 9577
2775 181  7133
2776 9681 342 
2777 4874 4790
2778 6862 7618
2779 1522 8355
2780 8072 3319
2781 9351 922 
2782 3053 8046
2783 1779 4135
2784 1945 4691
2785 56   3493
2786 5504 4171
2787 4353 4925
2788 9751 7835
2789 8512 6824
2790 8130 9902
2791 4764 5804
2792 5546 7657
2793 34   6168
2794 4966 4580
2795 563  8530
2796 1332 588 
2797 4855 2501
2798 7060 6764
2799 8115 3123
2800 3252 5656
2801 3472 2788
2802 9523 4679
2803 9189 7032
2804 8766 7082
2805 1482 2107
2806 3711 5240
2807 7659 3201
2808 2278 4346
2809 3312 4301
2810 9969 4452
2811 9061 6473
2812 4360 3245
2813 7500 3588
2814 1859 572 
2815 3181 8573
2816 3604 1244
2817 6717 9348
2818 6315 204 
2819 6279 791 
2820 4236 5909
2821 8111 4411
2822 8599 5054
2823 8633 2992
2824 3933 3793
2825 5420 4526
2826 4225 4729
2827 1916 9904
2828 216  1321
2829 393  6197
2830 4779 3523
2831 124  9064
2832 2117 2542
2833 5940 871 
2834 1817 9184
2835 9549 8167
2836 5205 1279
2837 4460 4254
2838 3153 7351
2839 1957 4374
2840 6649 2485
2841 6027 1953
2842 7945 1651
2843 6872 4352
2844 9896 366 
2845 8903 9743
2846 6051 7670
2847 2508 8410
2848 6304 1614
2849 6721 7387
2850 5130 8166
2851 3771 5583
2852 1028 2553
2853 2366 4517
2854 6921 2290
2855 5595 6088
2856 8883 5866
2857 5041 1563
2858 223  3712
2859 9481 12  
2860 2076 8229
2861 8926 4698
2862 8724 4761
2863 5021 4221
2864 2372 9833
2865 2125 5667
2866 8123 5109
2867 4546 2625
2868 6917 5139
2869 5953 5298
2870 9397 6623
2871 541  8995
2872 8100 2594
2873 9781 5708
2874 5608 1755
2875 4479 3840
2876 2461 3941
2877 764  2822
2878 8590 406 
2879 6692 3433
2880 2615 1788
2881 2837 3969
2882 6506 4294
2883 5721 8825
2884 5973 1155
2885 283  2320
2886 6882 3082
2887 7649 3465
2888 6291 1462
2889 9560 6284
2890 5427 1059
2891 7143 4502
2892 8249 2568
2893 6205 1146
2894 6129 5256
2895 2726 8420
2896 1850 1582
2897 7510 6360
2898 6411 670 
2899 7558 2443
2900 8406 4561
2901 2220 9734
2902 807  5362
2903 6147 725 
2904 6114 7777
2905 8292 8315
2906 1463 1326
2907 1286 7234
2908 7700 1833
2909 2175 1271
2910 1280 1727
2911 8051 877 
2912 2976 5349
2913 2985 657 
2914 1079 6892
2915 2528 936 
2916 3701 2117
2917 6544 2638
2918 5356 3497
2919 5534 8638
2920 8997 4297
2921 6790 2568
2922 4972 5659
2923 4811 2821
2924 1973 2427
2925 6272 5550
2926 884  3089
2927 9928 2058
2928 9330 6788
2929 4308 8395
2930 3369 4874
2931 2367 379 
2932 5409 5948
2933 2645 7915
2934 6748 6439
2935 820  1252
2936 1821 6362
2937 9735 136 
2938 6219 2445
2939 292  3370
2940 6602 8907
2941 4535 2897
2942 545  8570
2943 1754 7040
2944 5895 1446
2945 4683 3965
2946 5211 1703
2947 7313 6659
2948 7639 5216
2949 9525 6891
2950 52   4709
2951 6410 4890
2952 6730 4931
2953 1781 9965
2954 2373 8354
2955 1720 9237
2956 7292 5361
2957 8594 1475
2958 2930 7779
2959 6003 1041
2960 3928 4805
2961 792  7034
2962 7101 384 
2963 1089 4143
2964 4039 4740
2965 5721 1518
2966 7262 752 
2967 6157 925 
2968 3601 8471
2969 4200 486 
2970 3502 8916
2971 7101 1691
2972 8687 6476
2973 9089 4159
2974 5382 9779
2975 250  9300
2976 9845 9056
2977 8038 4454
2978 1147 1164
2979 1654 5712
2980 4716 9765
2981 6738 8317
2982 8184 7683
2983 2577 6291
2984 1978 8906
2985 8321 9472
2986 4900 3828
2987 8786 2846
2988 6922 6979
2989 972  854 
2990 7997 2833
2991 2137 3250
2992 2000 1411
2993 4546 5963
2994 523  3836
2995 4560 8887
2996 3406 7974
2997 6466 9258
2998 5980 8962
2999 151  2531
3000 2320 1757
3001 2416 4442
3002 7915 3660
3003 3334 8293
3004 7738 8184
3005 8855 3326
3006 1322 8392
3007 7017 8141
3008 9056 315 
3009 4832 5141
3010 4424 907 
3011 3580 6236
3012 9684 7199
3013 5832 3083
3014 7366 8478
3015 4877 6236
3016 4018 678 
3017 9984 4880
3018 955  3307
3019 1509 2688
3020 2205 9710
3021 5546 8995
3022 4723 8414
3023 2264 9748
3024 8108 8072
3025 3766 4276
3026 9690 3189
3027 8652 5442
3028 1409 9589
3029 8362 3268
3030 7370 7045
3031 7834 631 
3032 9849 2808
3033 5811 4433
3034 9112 1146
3035 6158 2925
3036 7446 1605
3037 77   6950
3038 148  4970
3039 9541 2874
3040 5967 4489
3041 2774 3371
3042 3729 9818
3043 9629 2863
3044 9357 6453
3045 8955 7523
3046 8773 7389
3047 7579 9178
3048 1036 6465
3049 9259 5995
3050 3976 343 
3051 4161 6359
3052 1764 8079
3053 7267 2561
3054 5024 1357
3055 4322 277 
3056 6582 1444
3057 6924 5092
3058 2244 278 
3059 7809 2300
3060 1199 5299
3061 7024 5901
3062 1211 195 
3063 7498 873 
3064 4416 156 
3065 5535 2429
3066 1287 1359
3067 9919 3378
3068 5375 6025
3069 6602 177 
3070 2697 2145
3071 9013 2401
3072 4261 1291
3073 8889 6630
3074 796  2614
3075 7253 3848
3076 4256 5101
3077 8619 3830
3078 5401 4411
3079 4907 7604
3080 3891 940 
3081 3435 8590
3082 8758 4166
3083 7857 9082
3084 6092 1418
3085 3107 1095
3086 4318 5267
3087 8270 8206
3088 587  2355
3089 5607 5879
3090 9905 8015
3091 4499 8350
3092 5612 1505
3093 6012 6174
3094 2641 8934
3095 6802 578 
3096 9333 3383
3097 1717 8695
3098 8492 7340
3099 5321 5718
3100 7933 8683
3101 4740 813 
3102 9263 4683
3103 4547 6302
3104 8753 2787
3105 9382 9364
3106 3621 5429
3107 1691 4614
3108 2056 7336
3109 6843 2440
3110 4293 2716
3111 2133 1170
3112 2858 2851
3113 7323 1084
3114 961  8885
3115 7025 7880
3116 2230 344 
3117 9692 9712
3118 8737 4539
3119 4115 4337
3120 398  1991
3121 6973 6347
3122 9984 6572
3123 9674 5304
3124 9803 1812
3125 4813 3123
3126 2178 9144
3127 931  647 
3128 937  7013
3129 8338 7605
3130 1572 5054
3131 1566 2906
3132 3774 6223
3133 5882 8890
3134 1336 4017
3135 544  3661
3136 4557 8357
3137 2853 6648
3138 4566 3310
3139 605  7094
3140 6563 2463
3141 9880 7459
3142 5395 6925
3143 6865 1018
3144 3226 3664
3145 614  7340
3146 1892 6849
3147 4059 4924
3148 6046 8568
3149 9315 7288
3150 5024 3631
3151 8991 6884
3152 9171 7943
3153 1312 115 
3154 2729 3715
3155 2192 7081
3156 4289 5136
3157 8611 4894
3158 4410 1576
3159 4285 8620
3160 2913 8616
3161 3622 3351
3162 4306 316 
3163 1690 8453
3164 5790 1116
3165 934  6850
3166 3089 3543
3167 1473 160 
3168 6880 1608
3169 9923 2500
3170 6670 3592
3171 8240 2053
3172 9245 5373
3173 5969 1899
3174 5098 8678
3175 3504 2402
3176 9148 8393
3177 8010 3864
3178 7521 6789
3179 2280 4860
3180 913  6619
3181 9054 9080
3182 7827 4469
3183 9746 8983
3184 665  9917
3185 8291 9144
3186 6991 685 
3187 6887 2272
3188 4548 7719
3189 3882 8849
3190 7562 689 
3191 7217 2378
3192 603  376 
3193 5975 331 
3194 4894 9206
3195 8600 9742
3196 6694 1623
3197 6475 219 
3198 5821 7779
3199 5874 7615
3200 3755 8344
3201 7696 2611
3202 3999 8117
3203 5460 8433
3204 1670 9402
3205 2885 2615
3206 9299 6507
3207 162  292 
3208 9350 132 
3209 8078 5020
3210 5748 9036
3211 4185 1726
3212 2954 8580
3213 1857 3692
3214 5816 4326
3215 3873 4112
3216 9740 5370
3217 9988 3249
3218 6762 2285
3219 8902 8853
3220 723  5614
3221 6911 6577
3222 7162 7496
3223 6840 1091
3224 9883 874 
3225 4161 1926
3226 1414 4013
3227 2429 5134
3228 1490 1749
3229 5484 5417
3230 3822 7485
3231 8268 7797
3232 6365 5830
3233 8495 9366
3234 6816 9088
3235 8806 3496
3236 8630 9368
3237 5233 3975
3238 8096 5145
3239 6131 9255
3240 8293 600 
3241 1107 5774
3242 3660 6309
3243 4748 7039
3244 2799 989 
3245 8017 7651
3246 3115 9339
3247 6741 1029
3248 849  2711
3249 5373 9187
3250 611  8465
3251 6189 5355
3252 7916 1248
3253 2151 547 
3254 965  2121
3255 1961 673 
3256 5087 9860
3257 4982 8524
3258 1681 3936
3259 859  7545
3260 2895 1632
3261 3519 8261
3262 18   2513
3263 2532 2032
3264 8317 5782
3265 280  9134
3266 8310 7913
3267 1218 1517
3268 2089 8083
3269 471  152 
3270 8688 2253
3271 5726 731 
3272 7517 3644
3273 8875 9412
3274 445  7485
3275 974  7109
3276 8208 3620
3277 209  8999
3278 693  3361
3279 3732 6978
3280 2751 8165
3281 9972 9985
3282 9039 5695
3283 1268 7595
3284 2851 3038
3285 1992 4564
3286 3840 3654
3287 9369 1792
3288 7590 8322
3289 7619 5941
3290 8495 4807
3291 4773 1237
3292 133  640 
3293 3410 5811
3294 5983 6883
3295 7286 7713
3296 5976 2283
3297 2242 5636
3298 324  9963
3299 1893 7229
3300 6252 6901
3301 9378 2385
3302 1690 6516
3303 5504 7085
3304 4694 4974
3305 3137 1061
3306 5828 1804
3307 9916 9377
3308 6521 7905
3309 270  6435
3310 2699 8687
3311 6600 315 
3312 7821 6655
3313 5687 3896
3314 6829 9536
3315 7913 6637
3316 8991 491 
3317 4352 3552
3318 497  4947
3319 6724 8764
3320 1283 8598
3321 5471 4900
3322 4739 4215
3323 7928 3323
3324 1211 6770
3325 2859 9609
3326 5624 5839
3327 7131 2477
3328 9121 2792
3329 9343 9974
3330 4006 1943
3331 6031 6631
3332 6355 1155
3333 3886 1141
3334 9640 529 
3335 1129 4370
3336 2588 1767
3337 6102 924 
3338 1578 1047
3339 6175 8084
3340 5466 8825
3341 370  8906
3342 7185 4210
3343 1013 9966
3344 9281 2200
3345 2637 3063
3346 4571 7130
3347 9202 5942
3348 4194 4797
3349 1851 3189
3350 8697 3647
3351 8910 6183
3352 5776 7554
3353 7894 4272
3354 8994 7383
3355 7558 9913
3356 9054 5221
3357 5967 7012
3358 2528 5027
3359 987  9865
3360 9710 1687
3361 1800 6512
3362 4064 3319
3363 9546 9698
3364 3130 1069
3365 6447 8859
3366 1354 4715
3367 3205 5478
3368 9524 9698
3369 5800 4522
3370 115  2690
3371 2873 6171
3372 653  5586
3373 6168 4408
3374 436  8617
3375 5305 1160
3376 8550 5914
3377 6811 9244
3378 5896 9359
3379 5474 1370
3380 3540 8186
3381 654  1919
3382 7125 6779
3383 6865 5533
3384 6161 3616
3385 3194 4962
3386 2207 886 
3387 3259 2859
3388 7655 9546
3389 4583 4881
3390 5309 4814
3391 4650 2388
3392 4519 6646
3393 3239 4157
3394 7931 6236
3395 509  2053
3396 9582 4872
3397 5986 250 
3398 8451 1496
3399 6654 763 
3400 5527 1299
3401 5306 6350
3402 974  7967
3403 7580 990 
3404 4153 2450
3405 200  8171
3406 5588 8116
3407 6754 3499
3408 8830 6178
3409 7550 361 
3410 8195 520 
3411 1310 1419
3412 777  1194
3413 3893 7504
3414 7373 4467
3415 5882 8679
3416 6684 4026
3417 6587 3394
3418 8567 3053
3419 7823 8516
3420 7836 4327
3421 5130 5122
3422 2521 5003
3423 2304 4149
3424 7441 4646
3425 8725 3392
3426 9434 1306
3427 665  7800
3428 5618 2382
3429 8793 8248
3430 5139 5051
3431 5214 5334
3432 928  5969
3433 1245 6561
3434 1220 2935
3435 1086 8209
3436 2906 6053
3437 9023 3916
3438 9878 4445
3439 1645 947 
3440 6542 9646
3441 2080 6687
3442 4561 4816
3443 3321 9600
3444 4219 7580
3445 4921 4061
3446 4878 5745
3447 9094 3122
3448 2131 2492
3449 4810 9866
3450 5994 4711
3451 1493 7548
3452 994  1653
3453 3305 2819
3454 6205 8704
3455 8927 4209
3456 7122 3664
3457 6908 9327
3458 1535 8374
3459 5650 8998
3460 12   1220
3461 2678 8733
3462 1686 7165
3463 9168 4057
3464 1283 6631
3465 2427 6978
3466 4249 5283
3467 6579 1419
3468 6938 1458
3469 8951 7588
3470 4309 7481
3471 116  2507
3472 8228 7049
3473 822  621 
3474 3799 956 
3475 9004 3879
3476 9656 7888
3477 1144 325 
3478 7111 440 
3479 7946 178 
3480 3920 6428
3481 8883 6383
3482 6438 674 
3483 9137 825 
3484 7565 840 
3485 2003 4963
3486 2192 3449
3487 2307 5523
3488 8942 1155
3489 9190 5306
3490 4051 8020
3491 4581 3165
3492 5033 5113
3493 6526 2674
3494 2742 7299
3495 3760 7148
3496 7963 6939
3497 1828 742 
3498 8046 3941
3499 5648 2762
3500 2656 654 
3501 3101 7775
3502 215  7881
3503 9674 5045
3504 4986 4906
3505 1403 7135
3506 6557 7355
3507 2272 8891
3508 2080 5152
3509 7746 3571
3510 586  5508
3511 7335 3098
3512 5534 2766
3513 8886 4187
3514 4072 2082
3515 3153 2976
3516 7306 6929
3517 9232 1469
3518 9078 6703
3519 598  9189
3520 5924 6832
3521 4084 3584
3522 5804 5848
3523 6017 6376
3524 4509 2711
3525 5701 8878
3526 57   9595
3527 9403 1104
3528 8229 8987
3529 8672 1662
3530 5160 7034
3531 2108 4339
3532 4148 7278
3533 8024 9673
3534 9347 2840
3535 304  8561
3536 7537 7429
3537 845  7074
3538 2357 239 
3539 3134 3949
3540 9698 2002
3541 7051 8676
3542 5400 5158
3543 825  1464
3544 9061 6631
3545 4604 9046
3546 1939 9925
3547 5642 47  
3548 1697 6501
3549 8848 2369
3550 2832 2805
3551 3556 7224
3552 2090 544 
3553 3854 1204
3554 1294 5922
3555 8796 6572
3556 7095 9683
3557 7798 4728
3558 2114 4981
3559 9959 690 
3560 1243 4173
3561 1527 110 
3562 8542 1439
3563 3333 5338
3564 7555 6547
3565 6948 5016
3566 5686 5350
3567 5662 8766
3568 8036 4404
3569 2374 8794
3570 6821 6429
3571 865  2036
3572 8903 1335
3573 1720 4521
3574 7781 3081
3575 4816 4710
3576 7519 4693
3577 3968 9679
3578 5893 7921
3579 5585 960 
3580 2052 5316
3581 2651 1433
3582 8103 7897
3583 8200 4030
3584 1228 6468
3585 2769 9270
3586 1045 6367
3587 2504 4711
3588 4254 8478
3589 6226 5151
3590 6604 6794
3591 6336 7658
3592 8611 6116
3593 5546 1257
3594 8936 2873
3595 4819 767 
3596 9176 1246
3597 4149 3983
3598 9349 8485
3599 5494 7894
3600 9182 3651
3601 9902 3123
3602 5974 4241
3603 5061 1831
3604 9310 5367
3605 6110 1399
3606 304  9212
3607 6797 3014
3608 8014 4780
3609 111  4491
3610 9532 5442
3611 488  1011
3612 9877 9829
3613 8799 1972
3614 2856 7451
3615 8029 5370
3616 9981 8389
3617 1674 3106
3618 1069 4780
3619 7251 6332
3620 8061 4093
3621 4971 3010
3622 8757 6615
3623 1858 8564
3624 8193 2724
3625 3118 2630
3626 6095 7883
3627 9700 2042
3628 7237 8512
3629 2532 4191
3630 3632 7815
3631 3040 6070
3632 9746 9357
3633 5917 7047
3634 3036 2494
3635 3093 9856
3636 8238 1854
3637 5932 8955
3638 4867 8256
3639 9587 7195
3640 902  4224
3641 2931 7416
3642 8195 9   
3643 5559 9408
3644 5912 1485
3645 5433 1953
3646 9823 5474
3647 715  5433
3648 903  6749
3649 489  2918
3650 7770 3609
3651 5914 4469
3652 9366 962 
3653 1235 3635
3654 5968 9695
3655 8343 8694
3656 824  3824
3657 444  8873
3658 518  7264
3659 3666 1998
3660 4934 4926
3661 2545 4158
3662 3160 7438
3663 7708 7862
3664 2620 4791
3665 6516 3262
3666 1059 4134
3667 9245 4035
3668 8933 2747
3669 2754 8632
3670 6096 8824
3671 6387 1534
3672 4820 4688
3673 2979 239 
3674 1520 9904
3675 5246 6223
3676 1563 7512
3677 7131 3628
3678 7683 5387
3679 4337 7393
3680 5468 1667
3681 4165 7086
3682 2578 9191
3683 8338 4349
3684 4979 9250
3685 4868 89  
3686 7840 1520
3687 1150 2309
3688 860  7200
3689 4932 7766
3690 6947 7015
3691 473  8264
3692 4238 3394
3693 1484 1686
3694 8865 7924
3695 2525 9381
3696 8514 8575
3697 4883 3514
3698 7663 6718
3699 6794 3053
3700 57   9433
3701 7118 6118
3702 6264 7417
3703 9435 7687
3704 7980 82  
3705 5174 2674
3706 4600 2306
3707 7388 4571
3708 3440 8692
3709 9024 8004
3710 1907 2317
3711 7791 9230
3712 6552 5940
3713 6133 4467
3714 42   8612
3715 5541 8939
3716 1967 6371
3717 9092 7729
3718 8420 2734
3719 8787 5998
3720 2509 7717
3721 3725 5338
3722 6929 9923
3723 1908 6729
3724 4503 9696
3725 3860 2195
3726 7707 2370
3727 8433 6075
3728 9443 5764
3729 3093 1255
3730 7600 39  
3731 4754 7979
3732 725  2521
3733 1623 5662
3734 2709 8276
3735 9472 2005
3736 4181 1717
3737 5926 9405
3738 1829 4491
3739 8756 5782
3740 5248 1946
3741 188  1207
3742 2451 2426
3743 724  6399
3744 5623 6908
3745 8703 9586
3746 8148 6655
3747 1811 5008
3748 4966 5940
3749 183  4494
3750 9243 4682
3751 4844 4529
3752 2710 8840
3753 3150 9813
3754 2054 8785
3755 7484 2861
3756 7191 3597
3757 9416 7333
3758 2654 5613
3759 7742 2950
3760 5099 9456
3761 6187 6704
3762 8420 8231
3763 7521 7459
3764 9975 6085
3765 2818 3654
3766 8038 5917
3767 6900 3032
3768 2178 7486
3769 5142 1043
3770 8951 1460
3771 4908 4868
3772 4281 1838
3773 762  939 
3774 3868 8332
3775 5277 1210
3776 2803 308 
3777 9884 8467
3778 7058 5995
3779 1293 5611
3780 6179 9947
3781 1070 273 
3782 5056 5216
3783 1195 4036
3784 8984 9874
3785 6380 9204
3786 9009 9735
3787 2556 1117
3788 8577 7952
3789 9727 8869
3790 983  9410
3791 1690 8597
3792 9583 4201
3793 3100 4775
3794 6504 5317
3795 2057 7737
3796 2347 7955
3797 6792 2959
3798 9118 2380
3799 4042 3493
3800 1743 7181
3801 8198 3431
3802 9787 4827
3803 2287 5945
3804 6248 5772
3805 883  3933
3806 8781 3588
3807 8881 9182
3808 2447 2399
3809 1588 8011
3810 9136 8610
3811 3070 8310
3812 1255 5203
3813 5915 2410
3814 6005 3423
3815 8048 9883
3816 5001 177 
3817 1711 9234
3818 9885 665 
3819 6676 8868
3820 8639 7669
3821 8493 7029
3822 4837 4328
3823 8059 8067
3824 9721 9763
3825 3868 2098
3826 3680 6299
3827 2294 4375
3828 3943 7354
3829 9969 2695
3830 2989 6115
3831 7906 9864
3832 7833 152 
3833 7516 9308
3834 6737 5982
3835 3930 470 
3836 4917 4224
3837 3964 2312
3838 93   2219
3839 5131 5917
3840 5694 5374
3841 8190 1028
3842 655  9582
3843 4384 9308
3844 6048 4150
3845 1332 7116
3846 5333 4719
3847 9101 3416
3848 6496 9999
3849 6719 210 
3850 9044 9525
3851 3848 9035
3852 2983 472 
3853 7134 3656
3854 4336 5692
3855 6266 7135
3856 8480 6918
3857 1236 2208
3858 5592 4577
3859 9595 7039
3860 4667 1855
3861 7857 5819
3862 4782 5300
3863 835  3153
3864 1486 6557
3865 5832 1989
3866 6151 6548
3867 3286 1827
3868 558  2890
3869 4785 9702
3870 3346 5494
3871 6172 4272
3872 9454 5907
3873 2866 15  
3874 3233 6512
3875 339  1329
3876 2335 8400
3877 5807 9056
3878 7514 1385
3879 2668 2483
3880 2559 9379
3881 4972 4498
3882 1440 4240
3883 9017 8987
3884 3156 1971
3885 183  26  
3886 8769 2780
3887 8577 9085
3888 8401 6103
3889 8935 5233
3890 3389 3792
3891 6222 438 
3892 7697 239 
3893 9731 3791
3894 7814 7369
3895 6751 4189
3896 6279 9376
3897 5671 8315
3898 5351 6971
3899 5094 3658
3900 1977 7571
3901 8316 4380
3902 7964 8117
3903 7861 9534
3904 9657 2944
3905 8164 8090
3906 3960 621 
3907 8204 894 
3908 8198 4653
3909 37   7482
3910 4055 1676
3911 5065 3858
3912 1211 1067
3913 3034 4102
3914 3012 1000
3915 9438 5560
3916 3874 3652
3917 7306 7522
3918 7874 816 
3919 8077 1100
3920 759  7120
3921 9742 7312
3922 5486 6020
3923 6360 848 
3924 6147 5630
3925 9481 3420
3926 2498 6295
3927 7001 3328
3928 9814 9810
3929 7423 3928
3930 8942 3712
3931 3459 3014
3932 8774 8817
3933 5673 6790
3934 7339 5203
3935 8517 8168
3936 6555 3471
3937 6959 383 
3938 1273 5658
3939 2332 2433
3940 1791 6455
3941 712  4722
3942 2866 9618
3943 4487 2108
3944 8961 3370
3945 7624 4091
3946 1094 8346
3947 6119 8628
3948 4555 1287
3949 2390 5816
3950 7164 574 
3951 6215 9613
3952 8310 7695
3953 612  1700
3954 6123 9882
3955 5263 7997
3956 3886 8832
3957 2392 5591
3958 3668 8101
3959 1009 5394
3960 1143 5267
3961 5895 1237
3962 1607 5057
3963 821  598 
3964 845  3952
3965 6511 7196
3966 7824 9275
3967 8789 324 
3968 2598 2722
3969 8724 4295
3970 874  532 
3971 5331 8704
3972 1597 1742
3973 1765 7415
3974 2726 1530
3975 9035 972 
3976 1868 7267
3977 1672 8496
3978 8517 5790
3979 7821 6145
3980 4854 5940
3981 815  7084
3982 5309 893 
3983 9442 4329
3984 2473 4591
3985 6789 1574
3986 8077 782 
3987 8629 4790
3988 4641 6124
3989 634  3171
3990 9977 5586
3991 9829 915 
3992 1375 8844
3993 3979 800 
3994 5042 8445
3995 5501 3043
3996 2241 7434
3997 1260 9693
3998 5155 5914
3999 9888 7688
4000 3596 9833
4001 5097 1613
4002 3922 7203
4003 5547 8062
4004 9958 4006
4005 6836 2968
4006 7099 6901
4007 9685 8599
4008 2567 5586
4009 7788 3480
4010 6829 848 
4011 6831 9533
4012 4335 5479
4013 1534 6896
4014 3994 7857
4015 9574 1243
4016 6307 231 
4017 7201 7933
4018 5768 1008
4019 7149 2783
4020 2894 4520
4021 6530 8273
4022 7083 8018
4023 7792 7252
4024 3051 9936
4025 5081 4656
4026 2255 7469
4027 4517 9386
4028 2074 6548
4029 1407 1842
4030 1139 8061
4031 3929 9279
4032 750  9023
4033 1123 9642
4034 6001 6950
4035 7352 785 
4036 7728 9628
4037 5893 7961
4038 4062 9745
4039 1209 3227
4040 8838 7607
4041 5516 5828
4042 9760 7140
4043 2650 3082
4044 2418 8597
4045 3188 7249
4046 7870 8440
4047 6303 8448
4048 7733 4946
4049 374  6371
4050 9170 640 
4051 3983 1558
4052 9570 4774
4053 3103 6045
4054 9961 4897
4055 8421 912 
4056 2331 5333
4057 3371 9544
4058 8776 9014
4059 2322 2617
4060 1582 5712
4061 2425 2727
4062 3427 7157
4063 1190 7043
4064 9346 7818
4065 7290 7112
4066 2053 2063
4067 4424 8626
4068 5767 362 
4069 9969 4674
4070 544  9801
4071 7988 18  
4072 5016 267 
4073 4337 3515
4074 4279 3047
4075 6439 3234
4076 9305 4060
4077 5683 6293
4078 137  6029
4079 386  5393
4080 8967 1359
4081 761  287 
4082 3260 2826
4083 78   8153
4084 2535 8493
4085 473  4965
4086 7887 7423
4087 7944 4767
4088 7575 4361
4089 9002 4460
4090 4831 5142
4091 4451 8521
4092 8368 4949
4093 4526 4032
4094 7544 4259
4095 3410 5586
4096 3040 4958
4097 9244 1895
4098 826  2512
4099 2653 1306
4100 2294 6559
4101 7025 1741
4102 9441 6111
4103 9593 4810
4104 3202 3997
4105 5803 4554
4106 7760 8639
4107 1181 777 
4108 7471 6549
4109 9576 821 
4110 810  6425
4111 9467 6800
4112 7821 3336
4113 4368 4340
4114 3200 3620
4115 4395 9359
4116 6013 6639
4117 7976 4484
4118 6954 7682
4119 1003 2896
4120 1208 3773
4121 6053 7781
4122 4545 9808
4123 7942 1729
4124 6624 4205
4125 1165 5701
4126 5748 8928
4127 5819 624 
4128 5643 1620
4129 4961 572 
4130 7112 8134
4131 9693 8868
4132 9617 2491
4133 8485 9981
4134 5800 3598
4135 3171 4975
4136 7952 4823
4137 8507 6994
4138 4687 8693
4139 2702 2855
4140 9244 4969
4141 1041 6617
4142 5488 1241
4143 1458 757 
4144 6488 7466
4145 1984 1019
4146 9225 4316
4147 7164 7138
4148 4658 8732
4149 3443 7501
4150 1466 7018
4151 8315 4319
4152 7647 9086
4153 9609 9176
4154 3725 3882
4155 6322 3124
4156 7691 7302
4157 2069 4819
4158 7174 1040
4159 8812 2467
4160 7057 4165
4161 1851 8276
4162 1618 1059
4163 5595 5717
4164 9020 8950
4165 8687 1500
4166 2155 9719
4167 9851 6087
4168 8471 8910
4169 3184 1589
4170 1321 5195
4171 9828 2230
4172 3064 5068
4173 6845 2755
4174 7415 3180
4175 2051 7472
4176 6741 80  
4177 2464 5725
4178 8949 3949
4179 6502 2021
4180 7779 3557
4181 8433 2067
4182 9063 1583
4183 9899 1855
4184 8769 5869
4185 3553 1070
4186 1166 5670
4187 3445 7070
4188 8695 7572
4189 419  9215
4190 5293 6461
4191 6659 9395
4192 2064 1689
4193 8401 1840
4194 8643 817 
4195 4352 3613
4196 8128 5890
4197 2724 2560
4198 292  1117
4199 2274 9392
4200 5726 8513
4201 5979 1125
4202 6020 9449
4203 6129 8457
4204 4499 5841
4205 6889 5839
4206 8542 1998
4207 6795 2367
4208 6893 4410
4209 3314 8548
4210 8179 7246
4211 13   123 
4212 2000 609 
4213 8135 9828
4214 2392 4162
4215 1989 2208
4216 2787 2589
4217 9028 4195
4218 4508 858 
4219 851  7658
4220 2824 2864
4221 5985 458 
4222 6133 2003
4223 6272 7388
4224 3866 312 
4225 8658 3629
4226 6312 2851
4227 9620 7862
4228 8271 3607
4229 5511 4422
4230 388  657 
4231 3282 2269
4232 3692 1962
4233 9221 1276
4234 1929 1669
4235 5825 5598
4236 68   4318
4237 7679 1566
4238 2972 8627
4239 3774 6491
4240 9785 9021
4241 346  9072
4242 6107 4097
4243 2395 3969
4244 4025 6289
4245 5220 582 
4246 7619 3894
4247 7050 1639
4248 5588 8757
4249 4501 8860
4250 4622 8792
4251 7010 6634
4252 350  8918
4253 7211 567 
4254 9481 9680
4255 6237 6584
4256 6158 4398
4257 8248 5900
4258 9527 667 
4259 5631 5877
4260 6991 4826
4261 2732 8200
4262 6760 7449
4263 4473 413 
4264 46   7185
4265 6122 7144
4266 1208 5053
4267 75   3748
4268 283  7054
4269 2730 4497
4270 8354 4201
4271 2760 9878
4272 1406 8724
4273 7364 5965
4274 2105 7904
4275 2802 8189
4276 5571 6332
4277 988  3456
4278 3894 9404
4279 1041 752 
4280 860  4908
4281 3992 341 
4282 4549 9949
4283 6236 7622
4284 2635 8691
4285 5862 2084
4286 8901 5610
4287 7606 3633
4288 6435 6804
4289 5834 8602
4290 6769 3226
4291 2925 8095
4292 2230 4223
4293 9131 8563
4294 595  958 
4295 957  7227
4296 5896 1102
4297 2425 7005
4298 8293 9247
4299 74   6699
4300 5883 8564
4301 437  1206
4302 2995 4442
4303 8581 5127
4304 4463 4511
4305 156  8163
4306 2258 740 
4307 6855 4830
4308 6774 370 
4309 217  2516
4310 5490 3499
4311 8457 5798
4312 4245 7507
4313 1587 8360
4314 7059 63  
4315 133  8772
4316 2462 6465
4317 1037 9249
4318 6330 1082
4319 5829 8556
4320 8230 9845
4321 2447 6986
4322 9445 3406
4323 8420 7734
4324 6779 2248
4325 1078 1500
4326 8774 239 
4327 3008 8189
4328 1352 2148
4329 7725 3319
4330 2827 9003
4331 1549 9678
4332 7505 6708
4333 3046 5406
4334 6154 8850
4335 6691 8114
4336 9919 8717
4337 6137 2208
4338 315  3851
4339 1471 2829
4340 3576 2593
4341 8136 4934
4342 7405 5726
4343 9370 2278
4344 8497 5486
4345 7340 6632
4346 7775 5756
4347 8011 2471
4348 3484 4837
4349 9235 434 
4350 7075 6988
4351 1208 1682
4352 2405 3600
4353 6943 295 
4354 8352 1114
4355 7345 4413
4356 9490 5777
4357 2383 1866
4358 6015 4940
4359 1824 7057
4360 4552 8286
4361 8269 8039
4362 3962 2366
4363 4330 8729
4364 6410 3919
4365 2826 6039
4366 3884 6154
4367 8915 3178
4368 7837 4152
4369 3946 2761
4370 8581 6659
4371 6984 1033
4372 3289 1213
4373 4982 3833
4374 2687 477 
4375 4264 737 
4376 5071 8355
4377 3190 81  
4378 1226 519 
4379 8270 3399
4380 6021 3064
4381 6807 6324
4382 614  1588
4383 6464 4107
4384 7405 5031
4385 8348 6388
4386 8116 2214
4387 8786 5045
4388 1806 5858
4389 8454 2225
4390 5978 396 
4391 7961 7976
4392 9406 1030
4393 8203 5520
4394 6898 2336
4395 9990 7283
4396 2101 2683
4397 2247 5761
4398 7571 5552
4399 2929 4032
4400 9001 4195
4401 8813 890 
4402 5450 5938
4403 1713 9432
4404 6109 3458
4405 2483 4406
4406 4620 3511
4407 1116 1740
4408 5315 2638
4409 5415 5123
4410 1791 5426
4411 7819 2632
4412 2630 6588
4413 6165 7100
4414 978  1093
4415 7471 7008
4416 1721 9433
4417 1379 5589
4418 5105 9205
4419 1741 8636
4420 2714 6590
4421 1687 9749
4422 1541 1205
4423 5826 2841
4424 9834 8988
4425 2438 9765
4426 9518 2213
4427 7925 5678
4428 3955 8607
4429 6239 75  
4430 7073 1316
4431 6965 5614
4432 9218 9554
4433 2416 8553
4434 8964 1874
4435 5075 8679
4436 7036 924 
4437 6361 1459
4438 9327 7423
4439 4424 7156
4440 761  8717
4441 4858 3461
4442 564  6698
4443 2865 7926
4444 8849 3673
4445 1711 7753
4446 1545 371 
4447 1293 5248
4448 1759 7900
4449 9079 6718
4450 349  1063
4451 8724 3276
4452 2690 5788
4453 924  779 
4454 161  1787
4455 8767 6000
4456 486  8639
4457 6489 6380
4458 441  5836
4459 3084 9957
4460 2716 9154
4461 5756 4686
4462 4353 1213
4463 2651 226 
4464 5353 3640
4465 267  499 
4466 2041 6807
4467 5888 7265
4468 6910 58  
4469 8855 3615
4470 3277 4557
4471 7892 9464
4472 9002 9159
4473 3514 4436
4474 3417 18  
4475 6922 2054
4476 6041 7129
4477 8931 7477
4478 7376 4257
4479 5270 3209
4480 3375 9704
4481 7482 9835
4482 1890 7769
4483 1503 2270
4484 1112 8768
4485 6401 289 
4486 8135 3010
4487 1431 6009
4488 4792 7348
4489 647  6883
4490 4012 623 
4491 6313 5813
4492 2506 6374
4493 1658 3491
4494 6950 320 
4495 5779 2395
4496 3541 1982
4497 1200 7158
4498 9511 4132
4499 3458 8355
4500 4943 999 
4501 4905 3076
4502 6370 3490
4503 4279 2956
4504 8664 1634
4505 428  5495
4506 6149 5751
4507 203  9241
4508 9655 6919
4509 1875 52  
4510 717  2465
4511 1301 4079
4512 6165 9472
4513 6032 9502
4514 5764 5681
4515 4576 781 
4516 7604 7499
4517 3582 5366
4518 1027 6824
4519 6599 9982
4520 5748 156 
4521 3668 4487
4522 443  299 
4523 6026 535 
4524 885  7116
4525 84   559 
4526 3216 5080
4527 5332 9595
4528 8918 3061
4529 3738 2393
4530 7691 3975
4531 7648 3483
4532 5798 274 
4533 2041 1834
4534 5451 1579
4535 6192 4351
4536 3442 1752
4537 126  3433
4538 2224 6888
4539 4743 2061
4540 5521 5821
4541 3851 1750
4542 5646 813 
4543 4074 6159
4544 9607 5971
4545 1183 4310
4546 5    2421
4547 2116 5238
4548 957  25  
4549 8675 9105
4550 1298 2315
4551 8512 2454
4552 1598 271 
4553 1299 6675
4554 580  4774
4555 8649 8885
4556 9821 960 
4557 5717 2019
4558 1232 5084
4559 5702 8280
4560 5958 8493
4561 2464 5129
4562 5920 6462
4563 1028 6815
4564 4148 2884
4565 9330 5323
4566 7887 270 
4567 9554 2698
4568 6783 6045
4569 2374 3271
4570 1269 4949
4571 831  4371
4572 3625 3222
4573 6364 7585
4574 9669 8384
4575 7234 2725
4576 8195 5828
4577 8241 4879
4578 2856 4803
4579 5478 3430
4580 6456 7857
4581 2050 9445
4582 3128 5712
4583 9253 530 
4584 1374 1634
4585 1309 4288
4586 604  520 
4587 1267 376 
4588 6954 2278
4589 51   7970
4590 1657 9339
4591 5319 528 
4592 6699 9755
4593 2612 5533
4594 5086 1426
4595 8893 7194
4596 9798 7024
4597 3291 6972
4598 8017 7439
4599 6934 5502
4600 9903 6235
4601 2496 4859
4602 3085 5300
4603 5434 1562
4604 6308 7025
4605 4721 8897
4606 4488 7517
4607 1986 1625
4608 7788 5776
4609 4157 7022
4610 1326 3220
4611 7717 4764
4612 8261 2723
4613 6316 3522
4614 8338 6316
4615 6518 8685
4616 3839 4807
4617 7906 9471
4618 2851 4298
4619 547  7169
4620 3403 4489
4621 3720 8170
4622 7279 2282
4623 8452 7546
4624 2291 5538
4625 912  2240
4626 5115 5770
4627 59   4382
4628 7267 4445
4629 783  9038
4630 3574 8447
4631 7666 576 
4632 9597 6791
4633 7333 3871
4634 1430 5846
4635 4704 9497
4636 686  2308
4637 2074 7126
4638 4456 3998
4639 1619 9175
4640 5341 1048
4641 560  7289
4642 3068 9690
4643 2645 7014
4644 4791 2029
4645 7791 9584
4646 4189 3717
4647 2133 7057
4648 9660 6872
4649 1583 1164
4650 2271 5237
4651 3881 5979
4652 139  4849
4653 408  1906
4654 519  9199
4655 4695 2673
4656 9966 8062
4657 5183 6825
4658 7630 5446
4659 829  4246
4660 555  6903
4661 4982 425 
4662 2937 2555
4663 6449 8310
4664 7174 12  
4665 1155 4378
4666 296  1936
4667 3156 4497
4668 2933 5549
4669 9154 8401
4670 6041 7721
4671 1695 4134
4672 4758 2626
4673 8363 4913
4674 1008 68  
4675 9017 1093
4676 626  1381
4677 4945 7232
4678 5197 1722
4679 1013 9858
4680 1303 9206
4681 9538 7338
4682 6946 4279
4683 4415 2906
4684 8690 6726
4685 6430 6512
4686 7337 6852
4687 1244 1179
4688 4097 3146
4689 3386 5389
4690 8477 7279
4691 807  9064
4692 9325 7851
4693 6810 7855
4694 2863 17  
4695 504  9843
4696 6920 1784
4697 1661 7954
4698 2765 4705
4699 9438 2741
4700 944  2596
4701 9885 2026
4702 2925 4880
4703 3132 7055
4704 7253 8869
4705 4384 6793
4706 2545 6893
4707 4617 8243
4708 8579 5905
4709 9144 8703
4710 6553 6492
4711 3130 5113
4712 7335 899 
4713 1506 359 
4714 9906 1721
4715 5733 395 
4716 1151 7090
4717 2632 790 
4718 2871 3933
4719 8827 2668
4720 6161 6146
4721 7439 7947
4722 8088 9358
4723 3118 428 
4724 888  1132
4725 9499 6825
4726 3689 3033
4727 9961 4268
4728 7466 4962
4729 6071 7652
4730 7550 1115
4731 7183 1302
4732 5521 7045
4733 714  8357
4734 8677 7440
4735 9129 8463
4736 2560 6937
4737 5755 9318
4738 7660 3347
4739 3874 5153
4740 2811 7047
4741 7597 2876
4742 857  8224
4743 2322 9533
4744 4890 2242
4745 7569 7671
4746 3198 2131
4747 3935 5150
4748 4021 583 
4749 8838 8431
4750 7840 9307
4751 2940 9860
4752 609  7350
4753 9936 522 
4754 599  3562
4755 6099 3580
4756 9854 4073
4757 9098 4141
4758 5893 2130
4759 8131 5739
4760 2171 5420
4761 6544 8892
4762 5164 8005
4763 2330 3388
4764 4953 6702
4765 3937 9929
4766 1089 5478
4767 7827 1610
4768 3468 5980
4769 4668 5926
4770 5395 2539
4771 3760 6668
4772 9226 4063
4773 3646 7457
4774 4851 6332
4775 5101 8045
4776 7768 8434
4777 332  6496
4778 1843 6416
4779 2076 7358
4780 1945 9523
4781 5832 1216
4782 7986 3172
4783 5483 6441
4784 4363 2237
4785 4785 1941
4786 3759 6987
4787 9293 6130
4788 4547 1638
4789 7242 3607
4790 2499 327 
4791 9136 1400
4792 3072 5346
4793 5634 6353
4794 4828 4632
4795 190  5057
4796 4120 6376
4797 8834 1628
4798 848  996 
4799 2765 4366
4800 7911 411 
4801 4413 5589
4802 943  9162
4803 4868 3290
4804 9178 8197
4805 6876 6644
4806 255  9112
4807 379  7272
4808 3943 1724
4809 1503 3043
4810 2663 9949
4811 8254 8312
4812 3920 9383
4813 8095 8252
4814 1027 2767
4815 6062 587 
4816 2763 8881
4817 1632 2511
4818 4810 4010
4819 1930 9383
4820 6411 9663
4821 662  3674
4822 8570 4163
4823 937  3273
4824 8923 4486
4825 5292 9701
4826 6596 5242
4827 8140 6974
4828 1932 5118
4829 9880 1249
4830 9550 66  
4831 5481 6758
4832 8232 3727
4833 9236 4525
4834 2907 8206
4835 8784 4191
4836 914  1009
4837 574  3435
4838 8852 3484
4839 9749 6282
4840 1688 5293
4841 2294 9448
4842 6092 7933
4843 2689 3371
4844 659  747 
4845 3103 1569
4846 5315 7800
4847 4828 8336
4848 4812 762 
4849 3943 5656
4850 7731 2331
4851 3746 8033
4852 9707 8828
4853 353  4178
4854 7683 6812
4855 5145 5582
4856 8837 32  
4857 7226 3696
4858 8726 2593
4859 7896 949 
4860 7319 7815
4861 6902 288 
4862 3468 8104
4863 9526 9721
4864 6595 7609
4865 6751 3463
4866 8741 6987
4867 1126 8540
4868 4451 2090
4869 1934 9362
4870 859  5004
4871 5862 6656
4872 8418 8001
4873 4613 1976
4874 5109 2462
4875 8422 1621
4876 9073 3838
4877 7300 5883
4878 7284 1153
4879 2351 8394
4880 1127 9031
4881 7631 3721
4882 5998 9955
4883 1450 8224
4884 9815 2459
4885 4387 5521
4886 2491 3836
4887 2858 2780
4888 4363 9139
4889 1735 8681
4890 2278 7273
4891 8970 1086
4892 6982 9185
4893 843  1955
4894 1381 9236
4895 3801 5147
4896 8978 3923
4897 8635 7006
4898 4435 4429
4899 490  2106
4900 9821 9976
4901 5333 8556
4902 1268 9744
4903 752  6956
4904 6934 2004
4905 6631 8948
4906 4258 9350
4907 8441 7755
4908 2592 4028
4909 8922 2753
4910 216  2492
4911 6890 6239
4912 6149 4830
4913 3780 5711
4914 9939 7153
4915 6570 141 
4916 462  3128
4917 2201 5311
4918 2695 9401
4919 7461 8942
4920 1315 5845
4921 7407 4353
4922 4270 8410
4923 3176 9448
4924 9550 2991
4925 4628 7091
4926 1802 4688
4927 9767 9238
4928 3258 70  
4929 1299 3380
4930 568  2858
4931 7386 1529
4932 7224 7400
4933 3139 1078
4934 6544 8516
4935 3951 6250
4936 1381 9356
4937 4990 9026
4938 5605 3885
4939 6399 8122
4940 3125 6787
4941 6132 6400
4942 7212 5029
4943 8550 793 
4944 2843 9739
4945 6650 1287
4946 6400 738 
4947 1316 2272
4948 3420 9599
4949 753  7657
4950 243  3376
4951 976  8925
4952 5323 8963
4953 9082 6748
4954 5895 94  
4955 3889 5590
4956 5169 3225
4957 3923 1398
4958 7150 4270
4959 4394 1178
4960 407  2234
4961 3122 1182
4962 3796 7793
4963 3100 1286
4964 9909 8724
4965 2371 9068
4966 5222 4070
4967 8479 1107
4968 835  3543
4969 9937 7074
4970 7889 3896
4971 7345 7715
4972 7006 8351
4973 8766 9328
4974 7650 7362
4975 618  8256
4976 1314 8312
4977 6533 8535
4978 5394 7318
4979 3193 8055
4980 9970 6391
4981 7756 680 
4982 174  4106
4983 8523 3665
4984 8649 750 
4985 8943 3417
4986 6335 4297
4987 8189 1151
4988 5221 754 
4989 2063 8255
4990 504  8602
4991 8204 8920
4992 6356 829 
4993 7167 5228
4994 6293 2760
4995 2766 7930
4996 2149 5172
4997 2966 6533
4998 8766 638 
4999 4255 2019
5000 3970 8046
5001 8709 5341
DEMAND_SECTION
1    0   
2    1   
3    4   
4    4   
5    53  
6    5   
7    10  
8    6   
9    3   
10   6   
11   1   
12   6   
13   1   
14   1   
15   7   
16   3   
17   8   
18   3   
19   1   
20   5   
21   2   
22   4   
23   7   
24   3   
25   5   
26   1   
27   4   
28   67  
29   2   
30   2   
31   10  
32   51  
33   5   
34   8   
35   7   
36   8   
37   10  
38   5   
39   2   
40   6   
41   8   
42   1   
43   7   
44   1   
45   59  
46   66  
47   5   
48   8   
49   5   
50   1   
51   73  
52   53  
53   5   
54   10  
55   5   
56   7   
57   1   
58   4   
59   2   
60   4   
61   10  
62   3   
63   8   
64   2   
65   10  
66   1   
67   10  
68   73  
69   89  
70   3   
71   4   
72   10  
73   6   
74   10  
75   3   
76   9   
77   2   
78   4   
79   9   
80   5   
81   8   
82   6   
83   1   
84   7   
85   2   
86   5   
87   3   
88   3   
89   5   
90   58  
91   6   
92   90  
93   7   
94   1   
95   93  
96   10  
97   9   
98   7   
99   1   
100  4   
101  4   
102  68  
103  54  
104  1   
105  2   
106  99  
107  1   
108  6   
109  72  
110  5   
111  9   
112  62  
113  3   
114  6   
115  8   
116  5   
117  4   
118  4   
119  9   
120  2   
121  82  
122  68  
123  2   
124  5   
125  4   
126  1   
127  75  
128  6   
129  3   
130  7   
131  5   
132  3   
133  9   
134  5   
135  7   
136  3   
137  78  
138  58  
139  7   
140  72  
141  91  
142  1   
143  10  
144  1   
145  1   
146  1   
147  98  
148  1   
149  4   
150  72  
151  3   
152  10  
153  2   
154  10  
155  5   
156  50  
157  9   
158  51  
159  2   
160  1   
161  54  
162  1   
163  7   
164  63  
165  7   
166  7   
167  3   
168  7   
169  4   
170  72  
171  1   
172  50  
173  1   
174  6   
175  1   
176  1   
177  1   
178  9   
179  5   
180  52  
181  99  
182  8   
183  10  
184  4   
185  7   
186  2   
187  3   
188  2   
189  9   
190  86  
191  89  
192  2   
193  1   
194  6   
195  10  
196  7   
197  2   
198  6   
199  97  
200  80  
201  3   
202  6   
203  10  
204  3   
205  2   
206  5   
207  1   
208  8   
209  3   
210  6   
211  2   
212  10  
213  8   
214  90  
215  9   
216  3   
217  9   
218  7   
219  7   
220  3   
221  70  
222  8   
223  4   
224  8   
225  8   
226  2   
227  5   
228  75  
229  4   
230  2   
231  63  
232  1   
233  8   
234  4   
235  10  
236  4   
237  8   
238  6   
239  7   
240  6   
241  5   
242  1   
243  5   
244  53  
245  5   
246  9   
247  10  
248  3   
249  83  
250  10  
251  1   
252  2   
253  79  
254  10  
255  5   
256  5   
257  78  
258  89  
259  9   
260  1   
261  1   
262  5   
263  7   
264  62  
265  1   
266  6   
267  7   
268  6   
269  5   
270  4   
271  4   
272  7   
273  77  
274  2   
275  8   
276  2   
277  2   
278  90  
279  77  
280  8   
281  2   
282  6   
283  9   
284  90  
285  99  
286  10  
287  6   
288  8   
289  8   
290  2   
291  6   
292  5   
293  6   
294  1   
295  1   
296  3   
297  7   
298  2   
299  7   
300  4   
301  67  
302  1   
303  86  
304  5   
305  9   
306  10  
307  8   
308  51  
309  79  
310  6   
311  6   
312  68  
313  8   
314  2   
315  10  
316  8   
317  8   
318  1   
319  7   
320  9   
321  2   
322  77  
323  3   
324  1   
325  7   
326  2   
327  2   
328  6   
329  8   
330  1   
331  10  
332  4   
333  80  
334  9   
335  4   
336  10  
337  8   
338  4   
339  10  
340  72  
341  64  
342  9   
343  10  
344  1   
345  2   
346  57  
347  5   
348  1   
349  7   
350  5   
351  8   
352  8   
353  9   
354  10  
355  7   
356  2   
357  8   
358  9   
359  8   
360  72  
361  7   
362  2   
363  3   
364  3   
365  10  
366  2   
367  95  
368  3   
369  51  
370  81  
371  7   
372  56  
373  6   
374  3   
375  91  
376  1   
377  2   
378  4   
379  2   
380  4   
381  5   
382  6   
383  95  
384  5   
385  4   
386  96  
387  7   
388  6   
389  9   
390  4   
391  95  
392  4   
393  1   
394  2   
395  90  
396  3   
397  57  
398  3   
399  59  
400  76  
401  10  
402  9   
403  67  
404  3   
405  2   
406  70  
407  6   
408  90  
409  53  
410  1   
411  6   
412  5   
413  10  
414  7   
415  6   
416  9   
417  9   
418  4   
419  5   
420  8   
421  1   
422  4   
423  75  
424  5   
425  1   
426  78  
427  10  
428  5   
429  8   
430  3   
431  1   
432  90  
433  91  
434  5   
435  8   
436  69  
437  81  
438  8   
439  8   
440  6   
441  2   
442  1   
443  3   
444  1   
445  94  
446  10  
447  7   
448  2   
449  1   
450  64  
451  50  
452  81  
453  3   
454  6   
455  77  
456  10  
457  5   
458  74  
459  5   
460  8   
461  8   
462  8   
463  73  
464  6   
465  99  
466  83  
467  6   
468  5   
469  1   
470  54  
471  76  
472  3   
473  2   
474  10  
475  5   
476  58  
477  6   
478  5   
479  9   
480  2   
481  10  
482  7   
483  8   
484  8   
485  7   
486  8   
487  2   
488  10  
489  76  
490  1   
491  2   
492  77  
493  4   
494  4   
495  8   
496  8   
497  5   
498  70  
499  86  
500  6   
501  4   
502  9   
503  4   
504  6   
505  9   
506  10  
507  9   
508  10  
509  9   
510  9   
511  6   
512  10  
513  1   
514  9   
515  2   
516  60  
517  64  
518  89  
519  7   
520  7   
521  10  
522  8   
523  10  
524  1   
525  3   
526  6   
527  7   
528  3   
529  10  
530  3   
531  67  
532  90  
533  4   
534  10  
535  7   
536  70  
537  55  
538  2   
539  4   
540  7   
541  69  
542  9   
543  7   
544  7   
545  4   
546  8   
547  10  
548  2   
549  4   
550  2   
551  8   
552  1   
553  6   
554  9   
555  3   
556  1   
557  2   
558  7   
559  5   
560  10  
561  80  
562  9   
563  3   
564  6   
565  5   
566  7   
567  7   
568  9   
569  3   
570  64  
571  59  
572  3   
573  2   
574  9   
575  4   
576  7   
577  6   
578  55  
579  4   
580  8   
581  5   
582  4   
583  8   
584  7   
585  5   
586  10  
587  93  
588  1   
589  4   
590  7   
591  5   
592  1   
593  2   
594  6   
595  10  
596  9   
597  8   
598  8   
599  8   
600  98  
601  5   
602  4   
603  92  
604  70  
605  77  
606  8   
607  68  
608  7   
609  2   
610  3   
611  9   
612  4   
613  4   
614  8   
615  8   
616  92  
617  3   
618  8   
619  6   
620  8   
621  7   
622  7   
623  10  
624  8   
625  9   
626  4   
627  8   
628  6   
629  4   
630  5   
631  9   
632  1   
633  99  
634  8   
635  8   
636  10  
637  8   
638  3   
639  7   
640  8   
641  5   
642  80  
643  3   
644  7   
645  4   
646  10  
647  3   
648  2   
649  5   
650  70  
651  7   
652  7   
653  7   
654  2   
655  10  
656  2   
657  89  
658  3   
659  80  
660  4   
661  6   
662  10  
663  8   
664  82  
665  10  
666  2   
667  69  
668  1   
669  4   
670  7   
671  7   
672  60  
673  53  
674  10  
675  6   
676  2   
677  3   
678  1   
679  4   
680  1   
681  3   
682  6   
683  6   
684  1   
685  6   
686  8   
687  5   
688  70  
689  9   
690  10  
691  4   
692  10  
693  99  
694  2   
695  5   
696  4   
697  4   
698  3   
699  8   
700  2   
701  5   
702  9   
703  9   
704  5   
705  8   
706  2   
707  5   
708  7   
709  8   
710  8   
711  4   
712  1   
713  5   
714  53  
715  6   
716  10  
717  4   
718  7   
719  7   
720  3   
721  5   
722  9   
723  3   
724  7   
725  93  
726  5   
727  10  
728  79  
729  9   
730  4   
731  2   
732  77  
733  9   
734  1   
735  1   
736  5   
737  5   
738  9   
739  1   
740  4   
741  5   
742  6   
743  7   
744  3   
745  9   
746  81  
747  66  
748  62  
749  5   
750  2   
751  6   
752  5   
753  9   
754  3   
755  2   
756  3   
757  3   
758  5   
759  8   
760  8   
761  7   
762  1   
763  9   
764  3   
765  3   
766  88  
767  9   
768  8   
769  7   
770  5   
771  68  
772  93  
773  9   
774  3   
775  9   
776  8   
777  100 
778  9   
779  8   
780  3   
781  8   
782  84  
783  3   
784  54  
785  2   
786  8   
787  63  
788  1   
789  4   
790  7   
791  3   
792  1   
793  72  
794  9   
795  7   
796  8   
797  1   
798  6   
799  1   
800  7   
801  5   
802  10  
803  3   
804  4   
805  4   
806  10  
807  2   
808  9   
809  4   
810  5   
811  10  
812  2   
813  82  
814  100 
815  1   
816  50  
817  8   
818  5   
819  2   
820  8   
821  6   
822  4   
823  69  
824  9   
825  4   
826  4   
827  10  
828  10  
829  2   
830  3   
831  7   
832  5   
833  3   
834  8   
835  8   
836  8   
837  2   
838  1   
839  7   
840  1   
841  8   
842  1   
843  3   
844  5   
845  77  
846  2   
847  5   
848  6   
849  77  
850  8   
851  8   
852  8   
853  7   
854  2   
855  99  
856  1   
857  1   
858  8   
859  6   
860  5   
861  1   
862  7   
863  3   
864  1   
865  8   
866  8   
867  5   
868  10  
869  5   
870  2   
871  1   
872  8   
873  7   
874  4   
875  1   
876  8   
877  4   
878  55  
879  4   
880  7   
881  67  
882  65  
883  50  
884  5   
885  9   
886  10  
887  3   
888  2   
889  5   
890  5   
891  71  
892  2   
893  2   
894  2   
895  8   
896  84  
897  96  
898  2   
899  5   
900  10  
901  7   
902  1   
903  2   
904  10  
905  2   
906  84  
907  3   
908  9   
909  10  
910  1   
911  1   
912  4   
913  7   
914  5   
915  1   
916  8   
917  1   
918  5   
919  4   
920  78  
921  4   
922  9   
923  3   
924  10  
925  4   
926  5   
927  4   
928  8   
929  5   
930  9   
931  8   
932  91  
933  50  
934  4   
935  1   
936  9   
937  8   
938  9   
939  1   
940  10  
941  7   
942  7   
943  5   
944  1   
945  8   
946  9   
947  9   
948  4   
949  10  
950  3   
951  53  
952  2   
953  3   
954  8   
955  4   
956  5   
957  71  
958  9   
959  7   
960  4   
961  10  
962  7   
963  9   
964  3   
965  8   
966  5   
967  93  
968  74  
969  5   
970  3   
971  5   
972  3   
973  68  
974  66  
975  6   
976  9   
977  3   
978  10  
979  1   
980  5   
981  2   
982  95  
983  3   
984  9   
985  6   
986  3   
987  62  
988  3   
989  3   
990  5   
991  9   
992  10  
993  4   
994  2   
995  8   
996  1   
997  7   
998  1   
999  97  
1000 5   
1001 5   
1002 61  
1003 5   
1004 4   
1005 85  
1006 7   
1007 1   
1008 77  
1009 10  
1010 6   
1011 9   
1012 4   
1013 54  
1014 6   
1015 5   
1016 3   
1017 8   
1018 5   
1019 9   
1020 7   
1021 8   
1022 7   
1023 90  
1024 1   
1025 96  
1026 1   
1027 9   
1028 4   
1029 6   
1030 3   
1031 1   
1032 1   
1033 4   
1034 6   
1035 3   
1036 6   
1037 3   
1038 3   
1039 84  
1040 1   
1041 75  
1042 4   
1043 5   
1044 96  
1045 10  
1046 9   
1047 9   
1048 3   
1049 3   
1050 10  
1051 2   
1052 87  
1053 2   
1054 8   
1055 98  
1056 5   
1057 9   
1058 7   
1059 3   
1060 7   
1061 2   
1062 1   
1063 1   
1064 6   
1065 5   
1066 6   
1067 5   
1068 90  
1069 7   
1070 3   
1071 5   
1072 10  
1073 5   
1074 78  
1075 8   
1076 73  
1077 9   
1078 6   
1079 75  
1080 8   
1081 51  
1082 7   
1083 69  
1084 74  
1085 60  
1086 3   
1087 52  
1088 1   
1089 8   
1090 7   
1091 73  
1092 65  
1093 10  
1094 7   
1095 9   
1096 1   
1097 8   
1098 7   
1099 3   
1100 5   
1101 86  
1102 6   
1103 2   
1104 1   
1105 6   
1106 2   
1107 6   
1108 1   
1109 71  
1110 10  
1111 8   
1112 4   
1113 7   
1114 10  
1115 6   
1116 9   
1117 1   
1118 1   
1119 1   
1120 7   
1121 7   
1122 2   
1123 84  
1124 10  
1125 9   
1126 7   
1127 7   
1128 2   
1129 1   
1130 4   
1131 5   
1132 2   
1133 7   
1134 5   
1135 8   
1136 4   
1137 77  
1138 6   
1139 8   
1140 2   
1141 2   
1142 3   
1143 66  
1144 9   
1145 8   
1146 7   
1147 9   
1148 78  
1149 5   
1150 4   
1151 97  
1152 2   
1153 90  
1154 5   
1155 7   
1156 6   
1157 74  
1158 7   
1159 66  
1160 1   
1161 6   
1162 10  
1163 2   
1164 2   
1165 2   
1166 8   
1167 4   
1168 10  
1169 71  
1170 4   
1171 1   
1172 7   
1173 5   
1174 3   
1175 81  
1176 2   
1177 7   
1178 6   
1179 8   
1180 2   
1181 1   
1182 2   
1183 1   
1184 1   
1185 10  
1186 9   
1187 5   
1188 9   
1189 8   
1190 7   
1191 1   
1192 5   
1193 3   
1194 1   
1195 75  
1196 10  
1197 5   
1198 5   
1199 10  
1200 1   
1201 4   
1202 3   
1203 4   
1204 86  
1205 4   
1206 1   
1207 54  
1208 3   
1209 7   
1210 6   
1211 6   
1212 99  
1213 9   
1214 5   
1215 3   
1216 1   
1217 9   
1218 95  
1219 3   
1220 8   
1221 8   
1222 57  
1223 1   
1224 3   
1225 10  
1226 1   
1227 2   
1228 10  
1229 3   
1230 10  
1231 1   
1232 7   
1233 3   
1234 7   
1235 8   
1236 5   
1237 7   
1238 9   
1239 3   
1240 1   
1241 8   
1242 10  
1243 10  
1244 9   
1245 90  
1246 3   
1247 4   
1248 4   
1249 98  
1250 3   
1251 1   
1252 65  
1253 4   
1254 8   
1255 2   
1256 77  
1257 9   
1258 3   
1259 10  
1260 4   
1261 2   
1262 3   
1263 5   
1264 2   
1265 5   
1266 7   
1267 6   
1268 6   
1269 7   
1270 1   
1271 97  
1272 2   
1273 9   
1274 82  
1275 5   
1276 3   
1277 8   
1278 7   
1279 69  
1280 6   
1281 3   
1282 6   
1283 71  
1284 6   
1285 1   
1286 1   
1287 4   
1288 1   
1289 9   
1290 9   
1291 7   
1292 1   
1293 8   
1294 4   
1295 3   
1296 5   
1297 6   
1298 96  
1299 58  
1300 5   
1301 8   
1302 10  
1303 6   
1304 10  
1305 6   
1306 3   
1307 9   
1308 2   
1309 56  
1310 10  
1311 5   
1312 5   
1313 1   
1314 9   
1315 53  
1316 2   
1317 1   
1318 3   
1319 3   
1320 95  
1321 1   
1322 56  
1323 4   
1324 8   
1325 64  
1326 5   
1327 10  
1328 7   
1329 5   
1330 96  
1331 1   
1332 3   
1333 68  
1334 4   
1335 9   
1336 7   
1337 3   
1338 8   
1339 1   
1340 75  
1341 2   
1342 4   
1343 7   
1344 5   
1345 2   
1346 10  
1347 3   
1348 4   
1349 4   
1350 7   
1351 7   
1352 67  
1353 6   
1354 89  
1355 1   
1356 4   
1357 6   
1358 8   
1359 2   
1360 9   
1361 7   
1362 4   
1363 8   
1364 8   
1365 3   
1366 6   
1367 2   
1368 8   
1369 9   
1370 4   
1371 9   
1372 81  
1373 7   
1374 64  
1375 72  
1376 84  
1377 50  
1378 9   
1379 5   
1380 1   
1381 8   
1382 86  
1383 7   
1384 8   
1385 8   
1386 4   
1387 3   
1388 9   
1389 9   
1390 2   
1391 10  
1392 61  
1393 5   
1394 64  
1395 1   
1396 3   
1397 3   
1398 3   
1399 10  
1400 5   
1401 2   
1402 9   
1403 3   
1404 4   
1405 6   
1406 6   
1407 6   
1408 8   
1409 5   
1410 2   
1411 3   
1412 2   
1413 63  
1414 4   
1415 1   
1416 10  
1417 10  
1418 9   
1419 4   
1420 72  
1421 74  
1422 10  
1423 8   
1424 2   
1425 4   
1426 5   
1427 7   
1428 63  
1429 5   
1430 8   
1431 55  
1432 5   
1433 80  
1434 91  
1435 3   
1436 2   
1437 3   
1438 1   
1439 4   
1440 86  
1441 93  
1442 10  
1443 6   
1444 7   
1445 63  
1446 84  
1447 5   
1448 8   
1449 9   
1450 97  
1451 4   
1452 10  
1453 1   
1454 63  
1455 8   
1456 6   
1457 1   
1458 98  
1459 7   
1460 9   
1461 8   
1462 9   
1463 10  
1464 7   
1465 6   
1466 8   
1467 4   
1468 71  
1469 56  
1470 3   
1471 2   
1472 5   
1473 4   
1474 4   
1475 6   
1476 51  
1477 9   
1478 8   
1479 2   
1480 6   
1481 90  
1482 9   
1483 2   
1484 8   
1485 61  
1486 9   
1487 7   
1488 6   
1489 2   
1490 2   
1491 4   
1492 10  
1493 9   
1494 9   
1495 52  
1496 86  
1497 70  
1498 3   
1499 5   
1500 7   
1501 4   
1502 8   
1503 9   
1504 2   
1505 1   
1506 4   
1507 2   
1508 75  
1509 1   
1510 7   
1511 7   
1512 9   
1513 4   
1514 8   
1515 7   
1516 69  
1517 7   
1518 100 
1519 7   
1520 1   
1521 3   
1522 3   
1523 7   
1524 7   
1525 71  
1526 1   
1527 1   
1528 9   
1529 7   
1530 69  
1531 10  
1532 4   
1533 2   
1534 2   
1535 3   
1536 8   
1537 8   
1538 7   
1539 3   
1540 9   
1541 7   
1542 96  
1543 87  
1544 8   
1545 6   
1546 4   
1547 92  
1548 4   
1549 10  
1550 9   
1551 1   
1552 8   
1553 1   
1554 6   
1555 6   
1556 8   
1557 2   
1558 76  
1559 1   
1560 7   
1561 81  
1562 5   
1563 4   
1564 7   
1565 2   
1566 9   
1567 2   
1568 84  
1569 4   
1570 66  
1571 1   
1572 8   
1573 1   
1574 1   
1575 10  
1576 3   
1577 76  
1578 6   
1579 61  
1580 8   
1581 4   
1582 6   
1583 9   
1584 10  
1585 9   
1586 1   
1587 7   
1588 9   
1589 55  
1590 52  
1591 8   
1592 10  
1593 5   
1594 1   
1595 6   
1596 9   
1597 5   
1598 6   
1599 1   
1600 74  
1601 98  
1602 68  
1603 9   
1604 86  
1605 95  
1606 62  
1607 4   
1608 7   
1609 6   
1610 2   
1611 1   
1612 2   
1613 9   
1614 86  
1615 10  
1616 5   
1617 8   
1618 66  
1619 8   
1620 4   
1621 10  
1622 2   
1623 67  
1624 10  
1625 2   
1626 10  
1627 4   
1628 98  
1629 10  
1630 10  
1631 8   
1632 4   
1633 10  
1634 9   
1635 4   
1636 9   
1637 3   
1638 4   
1639 4   
1640 9   
1641 8   
1642 7   
1643 83  
1644 64  
1645 1   
1646 89  
1647 4   
1648 4   
1649 63  
1650 50  
1651 97  
1652 10  
1653 3   
1654 7   
1655 9   
1656 99  
1657 9   
1658 74  
1659 9   
1660 9   
1661 1   
1662 1   
1663 1   
1664 7   
1665 1   
1666 6   
1667 4   
1668 5   
1669 4   
1670 94  
1671 10  
1672 5   
1673 3   
1674 3   
1675 63  
1676 5   
1677 2   
1678 8   
1679 3   
1680 6   
1681 1   
1682 7   
1683 4   
1684 6   
1685 3   
1686 92  
1687 4   
1688 2   
1689 3   
1690 3   
1691 8   
1692 5   
1693 1   
1694 94  
1695 7   
1696 9   
1697 10  
1698 9   
1699 3   
1700 8   
1701 4   
1702 10  
1703 10  
1704 10  
1705 69  
1706 1   
1707 6   
1708 8   
1709 3   
1710 9   
1711 97  
1712 89  
1713 6   
1714 7   
1715 3   
1716 76  
1717 6   
1718 62  
1719 77  
1720 3   
1721 6   
1722 5   
1723 7   
1724 3   
1725 98  
1726 6   
1727 70  
1728 4   
1729 82  
1730 10  
1731 5   
1732 53  
1733 4   
1734 7   
1735 8   
1736 4   
1737 58  
1738 6   
1739 3   
1740 6   
1741 1   
1742 7   
1743 2   
1744 61  
1745 100 
1746 4   
1747 2   
1748 1   
1749 1   
1750 8   
1751 74  
1752 1   
1753 6   
1754 9   
1755 5   
1756 3   
1757 3   
1758 9   
1759 5   
1760 7   
1761 9   
1762 6   
1763 57  
1764 6   
1765 4   
1766 50  
1767 2   
1768 64  
1769 5   
1770 10  
1771 3   
1772 9   
1773 53  
1774 5   
1775 86  
1776 4   
1777 1   
1778 10  
1779 9   
1780 2   
1781 7   
1782 10  
1783 6   
1784 2   
1785 3   
1786 4   
1787 4   
1788 6   
1789 1   
1790 8   
1791 7   
1792 82  
1793 3   
1794 2   
1795 6   
1796 3   
1797 4   
1798 5   
1799 5   
1800 7   
1801 5   
1802 9   
1803 3   
1804 1   
1805 4   
1806 4   
1807 82  
1808 88  
1809 4   
1810 7   
1811 5   
1812 10  
1813 79  
1814 6   
1815 70  
1816 3   
1817 10  
1818 2   
1819 5   
1820 1   
1821 6   
1822 5   
1823 4   
1824 8   
1825 1   
1826 7   
1827 2   
1828 7   
1829 3   
1830 9   
1831 58  
1832 1   
1833 9   
1834 77  
1835 2   
1836 84  
1837 64  
1838 65  
1839 4   
1840 10  
1841 10  
1842 3   
1843 4   
1844 3   
1845 6   
1846 5   
1847 3   
1848 4   
1849 2   
1850 6   
1851 9   
1852 55  
1853 6   
1854 5   
1855 73  
1856 9   
1857 1   
1858 7   
1859 90  
1860 2   
1861 7   
1862 10  
1863 9   
1864 9   
1865 75  
1866 99  
1867 98  
1868 5   
1869 1   
1870 9   
1871 1   
1872 6   
1873 3   
1874 2   
1875 4   
1876 9   
1877 73  
1878 6   
1879 7   
1880 2   
1881 5   
1882 5   
1883 3   
1884 1   
1885 1   
1886 5   
1887 3   
1888 5   
1889 1   
1890 6   
1891 4   
1892 8   
1893 62  
1894 66  
1895 7   
1896 75  
1897 68  
1898 79  
1899 6   
1900 2   
1901 73  
1902 4   
1903 8   
1904 89  
1905 8   
1906 57  
1907 9   
1908 3   
1909 5   
1910 3   
1911 8   
1912 5   
1913 10  
1914 10  
1915 100 
1916 10  
1917 79  
1918 7   
1919 1   
1920 9   
1921 10  
1922 2   
1923 4   
1924 1   
1925 7   
1926 1   
1927 10  
1928 10  
1929 2   
1930 4   
1931 79  
1932 7   
1933 1   
1934 4   
1935 3   
1936 1   
1937 8   
1938 6   
1939 76  
1940 63  
1941 9   
1942 10  
1943 69  
1944 6   
1945 2   
1946 2   
1947 3   
1948 4   
1949 73  
1950 6   
1951 1   
1952 59  
1953 88  
1954 8   
1955 8   
1956 9   
1957 4   
1958 2   
1959 9   
1960 4   
1961 52  
1962 56  
1963 7   
1964 9   
1965 10  
1966 3   
1967 7   
1968 53  
1969 1   
1970 2   
1971 3   
1972 6   
1973 8   
1974 92  
1975 4   
1976 2   
1977 4   
1978 4   
1979 3   
1980 5   
1981 5   
1982 9   
1983 2   
1984 7   
1985 9   
1986 3   
1987 7   
1988 9   
1989 7   
1990 10  
1991 9   
1992 7   
1993 10  
1994 2   
1995 3   
1996 65  
1997 10  
1998 90  
1999 4   
2000 10  
2001 3   
2002 1   
2003 7   
2004 2   
2005 2   
2006 3   
2007 10  
2008 2   
2009 99  
2010 4   
2011 87  
2012 2   
2013 5   
2014 7   
2015 86  
2016 4   
2017 7   
2018 8   
2019 2   
2020 10  
2021 2   
2022 7   
2023 2   
2024 8   
2025 8   
2026 6   
2027 6   
2028 5   
2029 7   
2030 4   
2031 8   
2032 10  
2033 7   
2034 4   
2035 1   
2036 66  
2037 100 
2038 87  
2039 5   
2040 96  
2041 4   
2042 1   
2043 10  
2044 2   
2045 1   
2046 6   
2047 8   
2048 54  
2049 10  
2050 4   
2051 9   
2052 2   
2053 2   
2054 6   
2055 9   
2056 6   
2057 2   
2058 9   
2059 5   
2060 3   
2061 10  
2062 85  
2063 5   
2064 3   
2065 1   
2066 6   
2067 3   
2068 9   
2069 7   
2070 10  
2071 6   
2072 9   
2073 9   
2074 8   
2075 3   
2076 10  
2077 79  
2078 7   
2079 3   
2080 3   
2081 5   
2082 4   
2083 6   
2084 1   
2085 57  
2086 10  
2087 98  
2088 96  
2089 68  
2090 8   
2091 5   
2092 6   
2093 5   
2094 2   
2095 78  
2096 58  
2097 10  
2098 10  
2099 4   
2100 3   
2101 5   
2102 9   
2103 7   
2104 73  
2105 85  
2106 10  
2107 2   
2108 10  
2109 2   
2110 10  
2111 4   
2112 1   
2113 6   
2114 10  
2115 9   
2116 58  
2117 3   
2118 1   
2119 2   
2120 1   
2121 10  
2122 3   
2123 1   
2124 72  
2125 7   
2126 3   
2127 10  
2128 4   
2129 8   
2130 3   
2131 10  
2132 9   
2133 95  
2134 7   
2135 9   
2136 10  
2137 2   
2138 1   
2139 9   
2140 84  
2141 2   
2142 4   
2143 9   
2144 1   
2145 6   
2146 1   
2147 9   
2148 1   
2149 7   
2150 91  
2151 3   
2152 10  
2153 9   
2154 80  
2155 7   
2156 3   
2157 9   
2158 59  
2159 8   
2160 2   
2161 2   
2162 6   
2163 4   
2164 6   
2165 95  
2166 8   
2167 2   
2168 4   
2169 8   
2170 5   
2171 100 
2172 5   
2173 4   
2174 10  
2175 10  
2176 3   
2177 85  
2178 8   
2179 70  
2180 7   
2181 9   
2182 1   
2183 5   
2184 3   
2185 6   
2186 5   
2187 4   
2188 8   
2189 80  
2190 1   
2191 1   
2192 9   
2193 1   
2194 1   
2195 5   
2196 10  
2197 53  
2198 8   
2199 1   
2200 1   
2201 50  
2202 9   
2203 3   
2204 1   
2205 2   
2206 59  
2207 7   
2208 7   
2209 8   
2210 2   
2211 8   
2212 5   
2213 1   
2214 65  
2215 4   
2216 8   
2217 2   
2218 8   
2219 10  
2220 1   
2221 6   
2222 2   
2223 5   
2224 76  
2225 1   
2226 8   
2227 3   
2228 7   
2229 10  
2230 5   
2231 2   
2232 56  
2233 8   
2234 4   
2235 2   
2236 64  
2237 10  
2238 99  
2239 8   
2240 10  
2241 1   
2242 7   
2243 6   
2244 8   
2245 10  
2246 4   
2247 10  
2248 7   
2249 9   
2250 10  
2251 1   
2252 8   
2253 3   
2254 1   
2255 91  
2256 9   
2257 5   
2258 8   
2259 3   
2260 9   
2261 4   
2262 8   
2263 4   
2264 8   
2265 1   
2266 2   
2267 3   
2268 10  
2269 2   
2270 8   
2271 54  
2272 2   
2273 6   
2274 75  
2275 7   
2276 5   
2277 4   
2278 6   
2279 2   
2280 3   
2281 62  
2282 8   
2283 6   
2284 55  
2285 1   
2286 81  
2287 7   
2288 2   
2289 3   
2290 9   
2291 7   
2292 5   
2293 8   
2294 6   
2295 3   
2296 5   
2297 5   
2298 10  
2299 75  
2300 95  
2301 10  
2302 61  
2303 7   
2304 4   
2305 2   
2306 67  
2307 1   
2308 3   
2309 4   
2310 5   
2311 3   
2312 98  
2313 4   
2314 10  
2315 9   
2316 1   
2317 7   
2318 1   
2319 8   
2320 6   
2321 1   
2322 2   
2323 94  
2324 5   
2325 8   
2326 1   
2327 5   
2328 1   
2329 7   
2330 5   
2331 6   
2332 73  
2333 4   
2334 10  
2335 7   
2336 7   
2337 5   
2338 10  
2339 51  
2340 1   
2341 65  
2342 1   
2343 7   
2344 8   
2345 2   
2346 1   
2347 7   
2348 92  
2349 60  
2350 81  
2351 95  
2352 5   
2353 3   
2354 6   
2355 9   
2356 6   
2357 4   
2358 4   
2359 88  
2360 2   
2361 4   
2362 83  
2363 54  
2364 74  
2365 83  
2366 3   
2367 51  
2368 4   
2369 84  
2370 10  
2371 8   
2372 8   
2373 76  
2374 5   
2375 6   
2376 5   
2377 3   
2378 9   
2379 4   
2380 59  
2381 69  
2382 9   
2383 8   
2384 6   
2385 8   
2386 56  
2387 7   
2388 2   
2389 4   
2390 91  
2391 74  
2392 9   
2393 2   
2394 75  
2395 7   
2396 10  
2397 1   
2398 7   
2399 6   
2400 10  
2401 6   
2402 9   
2403 100 
2404 1   
2405 2   
2406 59  
2407 2   
2408 5   
2409 3   
2410 8   
2411 5   
2412 5   
2413 8   
2414 80  
2415 10  
2416 10  
2417 4   
2418 4   
2419 4   
2420 74  
2421 1   
2422 3   
2423 7   
2424 10  
2425 80  
2426 3   
2427 2   
2428 7   
2429 5   
2430 10  
2431 9   
2432 8   
2433 5   
2434 7   
2435 9   
2436 6   
2437 6   
2438 6   
2439 5   
2440 51  
2441 6   
2442 9   
2443 6   
2444 10  
2445 5   
2446 5   
2447 8   
2448 1   
2449 78  
2450 1   
2451 7   
2452 5   
2453 1   
2454 71  
2455 10  
2456 1   
2457 10  
2458 10  
2459 8   
2460 1   
2461 7   
2462 1   
2463 10  
2464 5   
2465 69  
2466 7   
2467 5   
2468 7   
2469 7   
2470 86  
2471 10  
2472 9   
2473 98  
2474 65  
2475 5   
2476 1   
2477 9   
2478 50  
2479 67  
2480 2   
2481 59  
2482 8   
2483 9   
2484 6   
2485 67  
2486 2   
2487 9   
2488 10  
2489 10  
2490 3   
2491 3   
2492 7   
2493 9   
2494 6   
2495 6   
2496 3   
2497 1   
2498 2   
2499 1   
2500 4   
2501 6   
2502 2   
2503 82  
2504 6   
2505 5   
2506 10  
2507 79  
2508 3   
2509 1   
2510 8   
2511 9   
2512 7   
2513 3   
2514 2   
2515 3   
2516 3   
2517 6   
2518 4   
2519 7   
2520 10  
2521 6   
2522 9   
2523 4   
2524 10  
2525 1   
2526 3   
2527 97  
2528 5   
2529 4   
2530 2   
2531 10  
2532 1   
2533 4   
2534 9   
2535 5   
2536 4   
2537 4   
2538 9   
2539 70  
2540 6   
2541 95  
2542 1   
2543 76  
2544 1   
2545 8   
2546 72  
2547 10  
2548 8   
2549 1   
2550 60  
2551 50  
2552 2   
2553 79  
2554 6   
2555 2   
2556 1   
2557 57  
2558 72  
2559 59  
2560 54  
2561 64  
2562 7   
2563 5   
2564 4   
2565 54  
2566 4   
2567 10  
2568 10  
2569 86  
2570 92  
2571 10  
2572 3   
2573 61  
2574 6   
2575 3   
2576 3   
2577 99  
2578 6   
2579 3   
2580 82  
2581 10  
2582 8   
2583 2   
2584 8   
2585 2   
2586 5   
2587 5   
2588 98  
2589 100 
2590 7   
2591 4   
2592 4   
2593 4   
2594 5   
2595 8   
2596 1   
2597 7   
2598 10  
2599 2   
2600 5   
2601 5   
2602 5   
2603 52  
2604 6   
2605 6   
2606 2   
2607 1   
2608 1   
2609 79  
2610 69  
2611 2   
2612 3   
2613 92  
2614 8   
2615 2   
2616 1   
2617 4   
2618 8   
2619 93  
2620 97  
2621 8   
2622 6   
2623 5   
2624 10  
2625 10  
2626 9   
2627 4   
2628 3   
2629 4   
2630 7   
2631 4   
2632 2   
2633 7   
2634 2   
2635 6   
2636 59  
2637 2   
2638 88  
2639 2   
2640 64  
2641 10  
2642 4   
2643 3   
2644 7   
2645 10  
2646 7   
2647 7   
2648 6   
2649 66  
2650 2   
2651 80  
2652 5   
2653 5   
2654 93  
2655 2   
2656 7   
2657 80  
2658 1   
2659 82  
2660 6   
2661 2   
2662 8   
2663 9   
2664 10  
2665 8   
2666 64  
2667 8   
2668 4   
2669 8   
2670 8   
2671 9   
2672 60  
2673 2   
2674 8   
2675 2   
2676 1   
2677 4   
2678 5   
2679 8   
2680 8   
2681 1   
2682 7   
2683 60  
2684 6   
2685 1   
2686 60  
2687 2   
2688 3   
2689 6   
2690 10  
2691 7   
2692 2   
2693 9   
2694 77  
2695 9   
2696 9   
2697 2   
2698 97  
2699 4   
2700 9   
2701 6   
2702 5   
2703 1   
2704 8   
2705 4   
2706 77  
2707 5   
2708 63  
2709 1   
2710 8   
2711 58  
2712 2   
2713 8   
2714 8   
2715 52  
2716 94  
2717 65  
2718 7   
2719 2   
2720 58  
2721 80  
2722 5   
2723 9   
2724 80  
2725 5   
2726 8   
2727 2   
2728 4   
2729 1   
2730 3   
2731 6   
2732 5   
2733 4   
2734 82  
2735 5   
2736 59  
2737 10  
2738 1   
2739 96  
2740 5   
2741 52  
2742 1   
2743 10  
2744 2   
2745 7   
2746 5   
2747 3   
2748 2   
2749 2   
2750 97  
2751 93  
2752 9   
2753 1   
2754 8   
2755 7   
2756 7   
2757 3   
2758 90  
2759 7   
2760 4   
2761 80  
2762 2   
2763 1   
2764 3   
2765 3   
2766 82  
2767 3   
2768 8   
2769 4   
2770 8   
2771 5   
2772 9   
2773 8   
2774 60  
2775 73  
2776 8   
2777 3   
2778 4   
2779 3   
2780 8   
2781 4   
2782 9   
2783 7   
2784 4   
2785 5   
2786 3   
2787 10  
2788 6   
2789 6   
2790 7   
2791 58  
2792 2   
2793 8   
2794 6   
2795 10  
2796 10  
2797 1   
2798 10  
2799 2   
2800 3   
2801 2   
2802 55  
2803 6   
2804 2   
2805 7   
2806 9   
2807 50  
2808 8   
2809 70  
2810 6   
2811 53  
2812 6   
2813 4   
2814 4   
2815 5   
2816 2   
2817 73  
2818 5   
2819 6   
2820 4   
2821 9   
2822 8   
2823 10  
2824 5   
2825 1   
2826 3   
2827 3   
2828 3   
2829 8   
2830 10  
2831 4   
2832 87  
2833 9   
2834 9   
2835 3   
2836 8   
2837 9   
2838 2   
2839 1   
2840 67  
2841 2   
2842 5   
2843 4   
2844 2   
2845 2   
2846 7   
2847 3   
2848 1   
2849 8   
2850 78  
2851 8   
2852 52  
2853 3   
2854 10  
2855 2   
2856 62  
2857 9   
2858 3   
2859 6   
2860 5   
2861 88  
2862 94  
2863 4   
2864 7   
2865 77  
2866 2   
2867 80  
2868 5   
2869 9   
2870 99  
2871 8   
2872 10  
2873 1   
2874 6   
2875 9   
2876 5   
2877 8   
2878 2   
2879 55  
2880 7   
2881 69  
2882 8   
2883 6   
2884 10  
2885 8   
2886 69  
2887 79  
2888 8   
2889 7   
2890 65  
2891 3   
2892 5   
2893 2   
2894 50  
2895 6   
2896 6   
2897 54  
2898 8   
2899 4   
2900 5   
2901 82  
2902 8   
2903 8   
2904 1   
2905 10  
2906 7   
2907 2   
2908 74  
2909 2   
2910 10  
2911 1   
2912 7   
2913 10  
2914 7   
2915 6   
2916 8   
2917 8   
2918 5   
2919 4   
2920 1   
2921 8   
2922 5   
2923 5   
2924 2   
2925 6   
2926 10  
2927 5   
2928 10  
2929 5   
2930 8   
2931 1   
2932 3   
2933 57  
2934 2   
2935 3   
2936 7   
2937 10  
2938 1   
2939 89  
2940 9   
2941 57  
2942 8   
2943 8   
2944 2   
2945 5   
2946 3   
2947 3   
2948 7   
2949 5   
2950 9   
2951 93  
2952 10  
2953 4   
2954 5   
2955 10  
2956 2   
2957 10  
2958 5   
2959 8   
2960 92  
2961 2   
2962 55  
2963 5   
2964 9   
2965 81  
2966 4   
2967 5   
2968 50  
2969 3   
2970 5   
2971 6   
2972 91  
2973 9   
2974 2   
2975 2   
2976 4   
2977 78  
2978 90  
2979 98  
2980 5   
2981 4   
2982 8   
2983 3   
2984 4   
2985 6   
2986 2   
2987 1   
2988 7   
2989 8   
2990 4   
2991 4   
2992 7   
2993 87  
2994 7   
2995 6   
2996 51  
2997 1   
2998 7   
2999 5   
3000 5   
3001 8   
3002 1   
3003 3   
3004 1   
3005 4   
3006 7   
3007 4   
3008 10  
3009 9   
3010 8   
3011 77  
3012 66  
3013 4   
3014 85  
3015 96  
3016 9   
3017 6   
3018 7   
3019 1   
3020 86  
3021 2   
3022 6   
3023 7   
3024 6   
3025 6   
3026 1   
3027 4   
3028 1   
3029 67  
3030 61  
3031 4   
3032 5   
3033 1   
3034 7   
3035 76  
3036 2   
3037 2   
3038 6   
3039 94  
3040 3   
3041 9   
3042 9   
3043 8   
3044 3   
3045 3   
3046 7   
3047 8   
3048 3   
3049 61  
3050 2   
3051 7   
3052 3   
3053 10  
3054 52  
3055 2   
3056 10  
3057 2   
3058 8   
3059 9   
3060 94  
3061 1   
3062 8   
3063 97  
3064 78  
3065 4   
3066 1   
3067 10  
3068 7   
3069 7   
3070 5   
3071 7   
3072 78  
3073 1   
3074 84  
3075 10  
3076 86  
3077 1   
3078 3   
3079 2   
3080 5   
3081 7   
3082 60  
3083 10  
3084 100 
3085 8   
3086 71  
3087 5   
3088 2   
3089 1   
3090 10  
3091 10  
3092 6   
3093 8   
3094 2   
3095 10  
3096 5   
3097 3   
3098 9   
3099 70  
3100 3   
3101 84  
3102 1   
3103 5   
3104 6   
3105 1   
3106 8   
3107 4   
3108 1   
3109 67  
3110 4   
3111 3   
3112 6   
3113 4   
3114 10  
3115 97  
3116 1   
3117 4   
3118 9   
3119 90  
3120 5   
3121 10  
3122 7   
3123 10  
3124 8   
3125 10  
3126 78  
3127 4   
3128 4   
3129 6   
3130 76  
3131 2   
3132 77  
3133 7   
3134 1   
3135 10  
3136 88  
3137 10  
3138 1   
3139 7   
3140 10  
3141 6   
3142 5   
3143 6   
3144 54  
3145 2   
3146 9   
3147 4   
3148 6   
3149 4   
3150 3   
3151 5   
3152 6   
3153 4   
3154 9   
3155 2   
3156 2   
3157 8   
3158 9   
3159 97  
3160 6   
3161 60  
3162 7   
3163 10  
3164 3   
3165 69  
3166 89  
3167 4   
3168 5   
3169 5   
3170 8   
3171 4   
3172 10  
3173 2   
3174 10  
3175 6   
3176 8   
3177 4   
3178 3   
3179 8   
3180 9   
3181 10  
3182 5   
3183 82  
3184 7   
3185 5   
3186 7   
3187 1   
3188 5   
3189 6   
3190 5   
3191 1   
3192 9   
3193 79  
3194 1   
3195 81  
3196 9   
3197 5   
3198 4   
3199 7   
3200 4   
3201 53  
3202 10  
3203 2   
3204 2   
3205 6   
3206 10  
3207 8   
3208 7   
3209 1   
3210 4   
3211 8   
3212 6   
3213 1   
3214 8   
3215 4   
3216 5   
3217 3   
3218 10  
3219 9   
3220 5   
3221 2   
3222 10  
3223 2   
3224 4   
3225 8   
3226 9   
3227 4   
3228 5   
3229 56  
3230 4   
3231 4   
3232 53  
3233 9   
3234 2   
3235 5   
3236 4   
3237 1   
3238 7   
3239 10  
3240 6   
3241 6   
3242 7   
3243 2   
3244 8   
3245 6   
3246 87  
3247 2   
3248 6   
3249 6   
3250 71  
3251 53  
3252 10  
3253 3   
3254 96  
3255 2   
3256 3   
3257 8   
3258 10  
3259 10  
3260 2   
3261 99  
3262 4   
3263 76  
3264 93  
3265 9   
3266 8   
3267 8   
3268 5   
3269 64  
3270 10  
3271 3   
3272 9   
3273 5   
3274 5   
3275 5   
3276 86  
3277 10  
3278 91  
3279 6   
3280 7   
3281 9   
3282 84  
3283 7   
3284 9   
3285 3   
3286 1   
3287 3   
3288 3   
3289 75  
3290 2   
3291 8   
3292 7   
3293 2   
3294 8   
3295 1   
3296 10  
3297 4   
3298 2   
3299 6   
3300 10  
3301 3   
3302 8   
3303 2   
3304 8   
3305 97  
3306 74  
3307 56  
3308 67  
3309 7   
3310 8   
3311 8   
3312 96  
3313 6   
3314 10  
3315 5   
3316 6   
3317 5   
3318 4   
3319 5   
3320 86  
3321 68  
3322 3   
3323 9   
3324 4   
3325 10  
3326 92  
3327 7   
3328 6   
3329 4   
3330 7   
3331 10  
3332 1   
3333 3   
3334 9   
3335 10  
3336 2   
3337 3   
3338 10  
3339 6   
3340 5   
3341 1   
3342 5   
3343 7   
3344 9   
3345 9   
3346 6   
3347 6   
3348 2   
3349 3   
3350 6   
3351 1   
3352 3   
3353 8   
3354 10  
3355 6   
3356 2   
3357 90  
3358 9   
3359 5   
3360 9   
3361 4   
3362 1   
3363 50  
3364 5   
3365 7   
3366 4   
3367 4   
3368 2   
3369 4   
3370 1   
3371 62  
3372 5   
3373 3   
3374 1   
3375 63  
3376 65  
3377 51  
3378 74  
3379 9   
3380 10  
3381 5   
3382 80  
3383 6   
3384 1   
3385 10  
3386 2   
3387 72  
3388 7   
3389 9   
3390 3   
3391 58  
3392 56  
3393 4   
3394 7   
3395 5   
3396 8   
3397 1   
3398 65  
3399 1   
3400 3   
3401 8   
3402 5   
3403 80  
3404 10  
3405 3   
3406 9   
3407 9   
3408 3   
3409 3   
3410 2   
3411 2   
3412 2   
3413 6   
3414 6   
3415 8   
3416 10  
3417 5   
3418 7   
3419 4   
3420 6   
3421 56  
3422 2   
3423 93  
3424 67  
3425 4   
3426 67  
3427 10  
3428 5   
3429 8   
3430 3   
3431 3   
3432 1   
3433 54  
3434 1   
3435 8   
3436 10  
3437 5   
3438 70  
3439 2   
3440 4   
3441 6   
3442 10  
3443 8   
3444 6   
3445 9   
3446 88  
3447 5   
3448 8   
3449 5   
3450 3   
3451 1   
3452 7   
3453 1   
3454 1   
3455 90  
3456 77  
3457 5   
3458 57  
3459 5   
3460 5   
3461 5   
3462 56  
3463 1   
3464 87  
3465 2   
3466 6   
3467 4   
3468 4   
3469 10  
3470 10  
3471 10  
3472 9   
3473 7   
3474 5   
3475 8   
3476 8   
3477 3   
3478 7   
3479 93  
3480 7   
3481 76  
3482 9   
3483 10  
3484 4   
3485 82  
3486 4   
3487 2   
3488 4   
3489 10  
3490 9   
3491 8   
3492 6   
3493 7   
3494 9   
3495 3   
3496 5   
3497 10  
3498 9   
3499 6   
3500 3   
3501 5   
3502 5   
3503 85  
3504 8   
3505 7   
3506 9   
3507 3   
3508 3   
3509 8   
3510 52  
3511 81  
3512 6   
3513 1   
3514 10  
3515 6   
3516 6   
3517 91  
3518 3   
3519 7   
3520 1   
3521 85  
3522 53  
3523 6   
3524 9   
3525 10  
3526 9   
3527 5   
3528 5   
3529 57  
3530 8   
3531 10  
3532 8   
3533 8   
3534 6   
3535 59  
3536 2   
3537 2   
3538 10  
3539 6   
3540 1   
3541 91  
3542 6   
3543 5   
3544 5   
3545 74  
3546 4   
3547 7   
3548 9   
3549 68  
3550 96  
3551 80  
3552 9   
3553 8   
3554 9   
3555 50  
3556 7   
3557 1   
3558 7   
3559 4   
3560 8   
3561 1   
3562 9   
3563 63  
3564 7   
3565 3   
3566 75  
3567 6   
3568 6   
3569 72  
3570 10  
3571 53  
3572 1   
3573 7   
3574 5   
3575 2   
3576 53  
3577 7   
3578 5   
3579 8   
3580 10  
3581 9   
3582 1   
3583 1   
3584 1   
3585 6   
3586 53  
3587 3   
3588 1   
3589 1   
3590 9   
3591 2   
3592 1   
3593 9   
3594 96  
3595 7   
3596 85  
3597 84  
3598 54  
3599 7   
3600 54  
3601 1   
3602 4   
3603 1   
3604 5   
3605 2   
3606 7   
3607 9   
3608 9   
3609 6   
3610 8   
3611 3   
3612 4   
3613 4   
3614 62  
3615 9   
3616 10  
3617 78  
3618 9   
3619 10  
3620 1   
3621 1   
3622 4   
3623 8   
3624 7   
3625 56  
3626 91  
3627 69  
3628 2   
3629 79  
3630 10  
3631 4   
3632 8   
3633 4   
3634 6   
3635 99  
3636 5   
3637 4   
3638 2   
3639 58  
3640 8   
3641 8   
3642 89  
3643 9   
3644 7   
3645 62  
3646 6   
3647 9   
3648 4   
3649 5   
3650 7   
3651 6   
3652 4   
3653 8   
3654 4   
3655 71  
3656 1   
3657 5   
3658 77  
3659 6   
3660 10  
3661 87  
3662 2   
3663 1   
3664 3   
3665 7   
3666 2   
3667 1   
3668 7   
3669 9   
3670 77  
3671 8   
3672 67  
3673 3   
3674 64  
3675 7   
3676 5   
3677 1   
3678 61  
3679 87  
3680 70  
3681 5   
3682 9   
3683 6   
3684 5   
3685 1   
3686 10  
3687 8   
3688 72  
3689 3   
3690 10  
3691 4   
3692 88  
3693 2   
3694 8   
3695 2   
3696 83  
3697 4   
3698 10  
3699 81  
3700 7   
3701 6   
3702 6   
3703 4   
3704 2   
3705 2   
3706 7   
3707 97  
3708 3   
3709 1   
3710 8   
3711 3   
3712 7   
3713 3   
3714 4   
3715 8   
3716 8   
3717 9   
3718 94  
3719 6   
3720 6   
3721 4   
3722 78  
3723 7   
3724 1   
3725 75  
3726 4   
3727 4   
3728 4   
3729 57  
3730 75  
3731 1   
3732 4   
3733 78  
3734 73  
3735 71  
3736 10  
3737 7   
3738 5   
3739 8   
3740 10  
3741 6   
3742 90  
3743 3   
3744 69  
3745 5   
3746 2   
3747 60  
3748 6   
3749 4   
3750 84  
3751 4   
3752 9   
3753 1   
3754 10  
3755 4   
3756 3   
3757 98  
3758 9   
3759 10  
3760 4   
3761 4   
3762 8   
3763 1   
3764 7   
3765 94  
3766 1   
3767 10  
3768 3   
3769 78  
3770 5   
3771 9   
3772 53  
3773 94  
3774 3   
3775 3   
3776 2   
3777 7   
3778 96  
3779 1   
3780 1   
3781 1   
3782 86  
3783 1   
3784 3   
3785 2   
3786 90  
3787 66  
3788 9   
3789 82  
3790 3   
3791 4   
3792 1   
3793 3   
3794 2   
3795 1   
3796 10  
3797 6   
3798 82  
3799 1   
3800 1   
3801 6   
3802 7   
3803 1   
3804 7   
3805 10  
3806 7   
3807 8   
3808 2   
3809 1   
3810 86  
3811 1   
3812 7   
3813 51  
3814 2   
3815 5   
3816 5   
3817 2   
3818 5   
3819 10  
3820 5   
3821 9   
3822 9   
3823 67  
3824 3   
3825 97  
3826 7   
3827 66  
3828 7   
3829 4   
3830 10  
3831 9   
3832 68  
3833 7   
3834 3   
3835 8   
3836 6   
3837 5   
3838 78  
3839 2   
3840 8   
3841 6   
3842 5   
3843 1   
3844 1   
3845 9   
3846 7   
3847 6   
3848 3   
3849 10  
3850 1   
3851 7   
3852 6   
3853 5   
3854 98  
3855 1   
3856 94  
3857 7   
3858 59  
3859 6   
3860 7   
3861 1   
3862 8   
3863 10  
3864 98  
3865 4   
3866 84  
3867 65  
3868 10  
3869 7   
3870 70  
3871 9   
3872 7   
3873 4   
3874 4   
3875 1   
3876 10  
3877 8   
3878 77  
3879 10  
3880 6   
3881 59  
3882 6   
3883 2   
3884 3   
3885 71  
3886 2   
3887 7   
3888 3   
3889 4   
3890 97  
3891 2   
3892 7   
3893 7   
3894 4   
3895 6   
3896 6   
3897 2   
3898 4   
3899 8   
3900 10  
3901 67  
3902 7   
3903 7   
3904 3   
3905 9   
3906 3   
3907 2   
3908 4   
3909 3   
3910 6   
3911 5   
3912 10  
3913 1   
3914 9   
3915 10  
3916 2   
3917 8   
3918 5   
3919 6   
3920 4   
3921 4   
3922 9   
3923 90  
3924 3   
3925 10  
3926 3   
3927 63  
3928 66  
3929 5   
3930 9   
3931 7   
3932 5   
3933 4   
3934 9   
3935 4   
3936 7   
3937 3   
3938 3   
3939 9   
3940 10  
3941 97  
3942 5   
3943 7   
3944 2   
3945 8   
3946 51  
3947 52  
3948 4   
3949 73  
3950 3   
3951 5   
3952 4   
3953 4   
3954 5   
3955 2   
3956 9   
3957 8   
3958 6   
3959 56  
3960 3   
3961 97  
3962 1   
3963 5   
3964 100 
3965 9   
3966 7   
3967 2   
3968 4   
3969 9   
3970 6   
3971 3   
3972 82  
3973 5   
3974 1   
3975 6   
3976 8   
3977 8   
3978 4   
3979 6   
3980 2   
3981 8   
3982 2   
3983 92  
3984 4   
3985 1   
3986 1   
3987 98  
3988 65  
3989 73  
3990 2   
3991 3   
3992 8   
3993 55  
3994 6   
3995 8   
3996 2   
3997 5   
3998 3   
3999 6   
4000 7   
4001 9   
4002 6   
4003 1   
4004 9   
4005 8   
4006 70  
4007 1   
4008 98  
4009 1   
4010 90  
4011 4   
4012 2   
4013 4   
4014 4   
4015 61  
4016 8   
4017 6   
4018 87  
4019 85  
4020 2   
4021 4   
4022 9   
4023 2   
4024 7   
4025 93  
4026 9   
4027 10  
4028 2   
4029 2   
4030 6   
4031 96  
4032 6   
4033 7   
4034 2   
4035 9   
4036 9   
4037 4   
4038 10  
4039 3   
4040 9   
4041 97  
4042 10  
4043 1   
4044 3   
4045 5   
4046 9   
4047 85  
4048 1   
4049 62  
4050 2   
4051 6   
4052 6   
4053 5   
4054 6   
4055 2   
4056 5   
4057 8   
4058 63  
4059 79  
4060 5   
4061 94  
4062 53  
4063 3   
4064 7   
4065 81  
4066 8   
4067 7   
4068 2   
4069 99  
4070 10  
4071 8   
4072 78  
4073 6   
4074 6   
4075 6   
4076 3   
4077 8   
4078 1   
4079 10  
4080 4   
4081 10  
4082 1   
4083 6   
4084 3   
4085 9   
4086 91  
4087 2   
4088 93  
4089 1   
4090 98  
4091 2   
4092 3   
4093 5   
4094 2   
4095 8   
4096 6   
4097 4   
4098 10  
4099 6   
4100 7   
4101 50  
4102 3   
4103 10  
4104 10  
4105 5   
4106 87  
4107 8   
4108 6   
4109 80  
4110 99  
4111 3   
4112 8   
4113 4   
4114 61  
4115 5   
4116 1   
4117 4   
4118 94  
4119 1   
4120 2   
4121 86  
4122 7   
4123 6   
4124 3   
4125 2   
4126 9   
4127 6   
4128 9   
4129 5   
4130 80  
4131 54  
4132 8   
4133 10  
4134 83  
4135 76  
4136 9   
4137 2   
4138 1   
4139 9   
4140 4   
4141 1   
4142 1   
4143 9   
4144 10  
4145 10  
4146 1   
4147 6   
4148 9   
4149 5   
4150 9   
4151 7   
4152 3   
4153 8   
4154 5   
4155 6   
4156 10  
4157 8   
4158 3   
4159 8   
4160 6   
4161 10  
4162 10  
4163 10  
4164 7   
4165 72  
4166 7   
4167 6   
4168 7   
4169 9   
4170 3   
4171 2   
4172 10  
4173 5   
4174 5   
4175 6   
4176 3   
4177 10  
4178 9   
4179 10  
4180 2   
4181 4   
4182 5   
4183 8   
4184 3   
4185 9   
4186 3   
4187 7   
4188 8   
4189 2   
4190 10  
4191 8   
4192 53  
4193 2   
4194 2   
4195 6   
4196 4   
4197 70  
4198 4   
4199 2   
4200 3   
4201 7   
4202 6   
4203 80  
4204 3   
4205 76  
4206 5   
4207 1   
4208 10  
4209 82  
4210 10  
4211 10  
4212 86  
4213 4   
4214 10  
4215 10  
4216 94  
4217 1   
4218 5   
4219 3   
4220 7   
4221 1   
4222 1   
4223 58  
4224 7   
4225 1   
4226 4   
4227 8   
4228 92  
4229 62  
4230 5   
4231 4   
4232 73  
4233 7   
4234 10  
4235 4   
4236 3   
4237 5   
4238 10  
4239 2   
4240 7   
4241 64  
4242 9   
4243 1   
4244 59  
4245 9   
4246 4   
4247 4   
4248 9   
4249 91  
4250 89  
4251 8   
4252 9   
4253 8   
4254 5   
4255 5   
4256 4   
4257 6   
4258 10  
4259 7   
4260 3   
4261 5   
4262 10  
4263 56  
4264 5   
4265 62  
4266 7   
4267 8   
4268 1   
4269 4   
4270 10  
4271 62  
4272 10  
4273 8   
4274 3   
4275 4   
4276 77  
4277 7   
4278 7   
4279 79  
4280 5   
4281 4   
4282 9   
4283 10  
4284 58  
4285 2   
4286 9   
4287 9   
4288 7   
4289 4   
4290 5   
4291 3   
4292 1   
4293 1   
4294 1   
4295 5   
4296 2   
4297 10  
4298 9   
4299 10  
4300 4   
4301 59  
4302 2   
4303 4   
4304 9   
4305 6   
4306 95  
4307 10  
4308 1   
4309 5   
4310 58  
4311 10  
4312 5   
4313 5   
4314 3   
4315 91  
4316 4   
4317 2   
4318 9   
4319 10  
4320 8   
4321 6   
4322 2   
4323 2   
4324 1   
4325 1   
4326 72  
4327 9   
4328 6   
4329 10  
4330 79  
4331 3   
4332 1   
4333 62  
4334 10  
4335 68  
4336 10  
4337 82  
4338 7   
4339 9   
4340 8   
4341 6   
4342 7   
4343 4   
4344 54  
4345 10  
4346 97  
4347 1   
4348 7   
4349 8   
4350 80  
4351 8   
4352 67  
4353 3   
4354 7   
4355 6   
4356 1   
4357 4   
4358 68  
4359 5   
4360 6   
4361 6   
4362 6   
4363 9   
4364 10  
4365 3   
4366 7   
4367 9   
4368 3   
4369 9   
4370 3   
4371 71  
4372 72  
4373 5   
4374 8   
4375 1   
4376 10  
4377 3   
4378 9   
4379 84  
4380 8   
4381 6   
4382 1   
4383 4   
4384 4   
4385 90  
4386 54  
4387 5   
4388 6   
4389 2   
4390 4   
4391 10  
4392 4   
4393 9   
4394 5   
4395 7   
4396 9   
4397 6   
4398 9   
4399 8   
4400 1   
4401 10  
4402 8   
4403 9   
4404 2   
4405 3   
4406 1   
4407 2   
4408 4   
4409 72  
4410 8   
4411 9   
4412 7   
4413 5   
4414 8   
4415 54  
4416 10  
4417 7   
4418 2   
4419 8   
4420 1   
4421 4   
4422 62  
4423 3   
4424 2   
4425 10  
4426 2   
4427 4   
4428 9   
4429 10  
4430 3   
4431 4   
4432 2   
4433 2   
4434 9   
4435 10  
4436 1   
4437 10  
4438 99  
4439 4   
4440 6   
4441 8   
4442 92  
4443 5   
4444 6   
4445 78  
4446 4   
4447 5   
4448 10  
4449 4   
4450 8   
4451 5   
4452 10  
4453 61  
4454 10  
4455 87  
4456 2   
4457 1   
4458 3   
4459 5   
4460 9   
4461 1   
4462 3   
4463 8   
4464 90  
4465 8   
4466 82  
4467 3   
4468 6   
4469 7   
4470 2   
4471 7   
4472 5   
4473 6   
4474 82  
4475 4   
4476 9   
4477 4   
4478 4   
4479 93  
4480 76  
4481 4   
4482 3   
4483 8   
4484 8   
4485 7   
4486 8   
4487 68  
4488 68  
4489 8   
4490 8   
4491 61  
4492 9   
4493 9   
4494 2   
4495 6   
4496 1   
4497 5   
4498 5   
4499 9   
4500 58  
4501 6   
4502 90  
4503 9   
4504 2   
4505 3   
4506 3   
4507 52  
4508 10  
4509 6   
4510 98  
4511 2   
4512 6   
4513 6   
4514 7   
4515 7   
4516 8   
4517 4   
4518 71  
4519 6   
4520 1   
4521 7   
4522 50  
4523 6   
4524 4   
4525 3   
4526 4   
4527 3   
4528 8   
4529 2   
4530 8   
4531 6   
4532 5   
4533 1   
4534 7   
4535 10  
4536 7   
4537 6   
4538 100 
4539 97  
4540 4   
4541 3   
4542 8   
4543 9   
4544 64  
4545 7   
4546 10  
4547 4   
4548 2   
4549 10  
4550 4   
4551 6   
4552 7   
4553 8   
4554 8   
4555 92  
4556 6   
4557 7   
4558 2   
4559 8   
4560 87  
4561 69  
4562 7   
4563 1   
4564 1   
4565 57  
4566 99  
4567 4   
4568 9   
4569 10  
4570 87  
4571 3   
4572 9   
4573 7   
4574 1   
4575 1   
4576 3   
4577 4   
4578 8   
4579 8   
4580 5   
4581 85  
4582 3   
4583 92  
4584 2   
4585 84  
4586 10  
4587 96  
4588 5   
4589 10  
4590 7   
4591 1   
4592 84  
4593 5   
4594 74  
4595 78  
4596 84  
4597 3   
4598 81  
4599 4   
4600 6   
4601 2   
4602 7   
4603 85  
4604 10  
4605 9   
4606 89  
4607 90  
4608 10  
4609 3   
4610 2   
4611 5   
4612 51  
4613 5   
4614 9   
4615 99  
4616 7   
4617 6   
4618 10  
4619 3   
4620 6   
4621 1   
4622 81  
4623 6   
4624 61  
4625 5   
4626 8   
4627 69  
4628 10  
4629 1   
4630 6   
4631 10  
4632 2   
4633 7   
4634 10  
4635 86  
4636 93  
4637 5   
4638 2   
4639 2   
4640 3   
4641 4   
4642 65  
4643 9   
4644 6   
4645 2   
4646 5   
4647 9   
4648 9   
4649 10  
4650 10  
4651 1   
4652 4   
4653 2   
4654 2   
4655 1   
4656 5   
4657 2   
4658 64  
4659 7   
4660 5   
4661 77  
4662 3   
4663 10  
4664 4   
4665 10  
4666 2   
4667 5   
4668 4   
4669 10  
4670 3   
4671 8   
4672 8   
4673 1   
4674 8   
4675 2   
4676 5   
4677 8   
4678 8   
4679 10  
4680 10  
4681 6   
4682 3   
4683 8   
4684 2   
4685 62  
4686 3   
4687 4   
4688 9   
4689 3   
4690 10  
4691 1   
4692 56  
4693 10  
4694 89  
4695 2   
4696 10  
4697 9   
4698 6   
4699 3   
4700 7   
4701 1   
4702 10  
4703 53  
4704 4   
4705 59  
4706 1   
4707 10  
4708 6   
4709 56  
4710 1   
4711 6   
4712 6   
4713 4   
4714 9   
4715 3   
4716 92  
4717 8   
4718 3   
4719 87  
4720 1   
4721 5   
4722 9   
4723 3   
4724 2   
4725 1   
4726 9   
4727 6   
4728 5   
4729 9   
4730 6   
4731 10  
4732 95  
4733 7   
4734 7   
4735 10  
4736 2   
4737 1   
4738 6   
4739 1   
4740 5   
4741 3   
4742 73  
4743 10  
4744 3   
4745 2   
4746 9   
4747 6   
4748 2   
4749 5   
4750 6   
4751 7   
4752 2   
4753 3   
4754 9   
4755 2   
4756 7   
4757 51  
4758 2   
4759 98  
4760 10  
4761 3   
4762 4   
4763 10  
4764 5   
4765 1   
4766 2   
4767 7   
4768 3   
4769 63  
4770 1   
4771 3   
4772 3   
4773 5   
4774 4   
4775 10  
4776 86  
4777 1   
4778 2   
4779 2   
4780 7   
4781 1   
4782 1   
4783 8   
4784 6   
4785 6   
4786 98  
4787 87  
4788 10  
4789 9   
4790 3   
4791 65  
4792 6   
4793 4   
4794 6   
4795 4   
4796 3   
4797 74  
4798 5   
4799 86  
4800 9   
4801 2   
4802 4   
4803 9   
4804 7   
4805 3   
4806 65  
4807 5   
4808 5   
4809 6   
4810 6   
4811 1   
4812 5   
4813 5   
4814 1   
4815 3   
4816 9   
4817 1   
4818 5   
4819 3   
4820 5   
4821 61  
4822 2   
4823 5   
4824 2   
4825 2   
4826 6   
4827 3   
4828 6   
4829 8   
4830 4   
4831 76  
4832 7   
4833 7   
4834 9   
4835 1   
4836 7   
4837 8   
4838 1   
4839 1   
4840 6   
4841 3   
4842 7   
4843 4   
4844 3   
4845 68  
4846 3   
4847 10  
4848 4   
4849 4   
4850 4   
4851 9   
4852 68  
4853 10  
4854 7   
4855 55  
4856 5   
4857 10  
4858 92  
4859 6   
4860 10  
4861 9   
4862 7   
4863 3   
4864 5   
4865 7   
4866 3   
4867 9   
4868 86  
4869 8   
4870 69  
4871 5   
4872 10  
4873 7   
4874 3   
4875 1   
4876 7   
4877 10  
4878 53  
4879 1   
4880 57  
4881 62  
4882 99  
4883 1   
4884 3   
4885 9   
4886 1   
4887 3   
4888 9   
4889 72  
4890 64  
4891 4   
4892 8   
4893 3   
4894 10  
4895 2   
4896 9   
4897 7   
4898 6   
4899 7   
4900 4   
4901 4   
4902 10  
4903 2   
4904 3   
4905 10  
4906 1   
4907 64  
4908 8   
4909 2   
4910 65  
4911 10  
4912 7   
4913 9   
4914 8   
4915 85  
4916 4   
4917 5   
4918 3   
4919 7   
4920 3   
4921 3   
4922 10  
4923 8   
4924 4   
4925 3   
4926 3   
4927 8   
4928 10  
4929 6   
4930 3   
4931 6   
4932 10  
4933 1   
4934 7   
4935 3   
4936 5   
4937 6   
4938 64  
4939 7   
4940 4   
4941 8   
4942 9   
4943 4   
4944 4   
4945 59  
4946 88  
4947 3   
4948 3   
4949 5   
4950 7   
4951 1   
4952 3   
4953 9   
4954 6   
4955 2   
4956 8   
4957 5   
4958 1   
4959 6   
4960 84  
4961 10  
4962 8   
4963 7   
4964 8   
4965 6   
4966 75  
4967 8   
4968 9   
4969 8   
4970 7   
4971 52  
4972 57  
4973 2   
4974 7   
4975 8   
4976 4   
4977 54  
4978 7   
4979 4   
4980 6   
4981 3   
4982 10  
4983 7   
4984 8   
4985 51  
4986 4   
4987 6   
4988 2   
4989 10  
4990 63  
4991 10  
4992 7   
4993 8   
4994 10  
4995 6   
4996 67  
4997 2   
4998 7   
4999 10  
5000 58  
5001 68  
DEPOT_SECTION
1
-1
EOF
