NAME : XML500_1176_01
COMMENT : Generated as the XML100 dataset from the CVRPLIB
TYPE : CVRP
DIMENSION : 501
EDGE_WEIGHT_TYPE : EUC_2D
CAPACITY : 247
NODE_COORD_SECTION
1    7906 9471
2    5099 9456
3    9958 9316
4    7521 7459
5    9939 1180
6    6660 4649
7    7093 6671
8    2178 7486
9    9924 3053
10   9468 5696
11   4500 2351
12   5277 1210
13   2803 308 
14   9884 8467
15   5573 1855
16   817  9918
17   2868 5796
18   6504 5317
19   3125 8565
20   9787 4827
21   8301 7689
22   7466 4957
23   2562 3674
24   453  901 
25   7092 2499
26   7906 9864
27   2724 8018
28   7516 9308
29   5979 5043
30   5694 5374
31   6556 512 
32   8190 1028
33   6608 376 
34   9101 3416
35   6496 9999
36   5319 8223
37   59   7275
38   9595 7039
39   7376 1939
40   3154 3956
41   1518 4040
42   6151 6548
43   2452 6298
44   3204 9642
45   4785 9702
46   9454 5907
47   9991 7399
48   4750 8742
49   9669 1722
50   8549 7785
51   5094 3658
52   3602 9339
53   1977 7571
54   9111 873 
55   7163 7716
56   7300 4021
57   956  2694
58   9064 4707
59   4714 5482
60   9798 380 
61   2584 9517
62   2517 3888
63   5917 730 
64   5545 2919
65   6430 3298
66   1273 5658
67   2777 864 
68   5480 8648
69   4539 7906
70   776  5872
71   4555 1287
72   6379 2727
73   2538 9931
74   6123 9882
75   3843 2909
76   691  2807
77   2535 706 
78   821  598 
79   6511 7196
80   7824 9275
81   7560 1085
82   7578 8049
83   2697 3206
84   8517 5790
85   5850 1144
86   4738 3302
87   6667 7811
88   9829 915 
89   1375 8844
90   1246 4095
91   5501 3043
92   6022 7601
93   6935 5380
94   9379 7663
95   9418 4837
96   677  3071
97   3922 7203
98   9958 4006
99   7151 8210
100  49   9901
101  2074 6548
102  4141 6170
103  6421 1544
104  5893 7961
105  9640 787 
106  7325 5623
107  2990 1306
108  700  6484
109  6127 4625
110  6227 9992
111  8776 9014
112  7231 1616
113  4060 4547
114  1064 9577
115  5767 362 
116  4854 7132
117  5016 267 
118  7988 18  
119  4172 5901
120  4451 8521
121  3040 4958
122  5546 7657
123  563  8530
124  1332 588 
125  6013 6639
126  2278 4346
127  7650 5147
128  9174 3125
129  3967 7792
130  2305 455 
131  8599 5054
132  4796 5707
133  7524 2792
134  1453 3428
135  2702 2855
136  192  7440
137  7646 4816
138  1957 4374
139  1458 757 
140  6488 7466
141  811  9502
142  2508 8410
143  7939 6827
144  8315 4319
145  5041 1563
146  6322 3124
147  8724 4761
148  5595 5717
149  8523 9023
150  4546 2625
151  5293 539 
152  6944 9990
153  3184 1589
154  6628 7235
155  82   8926
156  1519 2490
157  5721 8825
158  5973 1155
159  283  2320
160  4707 5823
161  565  6534
162  9030 7342
163  2647 1203
164  1850 1582
165  7510 6360
166  6129 8457
167  6889 5839
168  6147 725 
169  6938 7333
170  9548 3569
171  8051 877 
172  4214 7147
173  2528 936 
174  2914 2042
175  9620 7862
176  7098 6784
177  8868 9583
178  7360 6631
179  71   8229
180  200  2589
181  2645 7915
182  9722 262 
183  5825 5598
184  6219 2445
185  4192 1180
186  9785 9021
187  9007 4205
188  5246 9045
189  160  5998
190  9351 859 
191  4622 8792
192  7010 6634
193  9525 6891
194  1781 9965
195  1750 6910
196  46   7185
197  283  7054
198  2730 4497
199  2760 9878
200  2128 904 
201  4039 4740
202  3145 5732
203  988  3456
204  3894 9404
205  679  878 
206  1147 1164
207  465  2753
208  7913 1392
209  2137 3250
210  2691 510 
211  217  2516
212  4857 5743
213  4245 7507
214  1587 8360
215  7738 8184
216  6125 5480
217  8774 239 
218  2667 2758
219  9690 3189
220  6764 3905
221  9849 2808
222  9541 2874
223  9452 6539
224  8136 4934
225  7340 6632
226  6012 6296
227  9099 2768
228  7694 4490
229  2340 6153
230  9259 5995
231  6924 5092
232  3272 1149
233  8793 8374
234  7024 5901
235  3946 2761
236  7498 873 
237  4646 4297
238  9286 2098
239  2995 6909
240  4907 7604
241  9651 4244
242  8003 1359
243  427  1226
244  6905 1899
245  2720 5152
246  6802 578 
247  2542 7385
248  1142 3088
249  6354 8026
250  4740 813 
251  2391 972 
252  2133 1170
253  9007 8771
254  7471 7008
255  9249 5905
256  2282 7514
257  1572 5054
258  3955 8607
259  9220 9116
260  7036 924 
261  2813 1281
262  927  9974
263  5581 4691
264  5136 3091
265  1892 6849
266  1759 7900
267  1312 115 
268  2729 3715
269  4807 8216
270  2716 9154
271  828  5728
272  3262 82  
273  8550 2923
274  5969 1899
275  7240 9898
276  3504 2402
277  6312 1104
278  3368 2085
279  1112 8768
280  2306 1712
281  2917 8543
282  6887 2272
283  2930 2798
284  4894 9206
285  7485 6949
286  4356 9789
287  6165 9472
288  1111 6001
289  2678 9773
290  6645 7671
291  8902 8853
292  1893 7828
293  6599 9982
294  1414 4013
295  5723 1445
296  5451 5845
297  1490 1749
298  3919 1873
299  7691 3975
300  5233 3975
301  126  3433
302  2224 6888
303  3851 1750
304  3141 9331
305  3115 9339
306  849  2711
307  7143 7700
308  878  9578
309  9851 2452
310  5087 9860
311  2895 1632
312  280  9134
313  6329 8929
314  9801 8018
315  4148 2884
316  6934 3757
317  5613 4411
318  3840 3654
319  7590 8322
320  2523 7396
321  7234 2725
322  8298 8182
323  7286 7713
324  2467 8154
325  6252 6901
326  7148 5263
327  3128 5712
328  9253 530 
329  1309 4288
330  604  520 
331  156  5594
332  6882 5038
333  1901 2463
334  9798 7024
335  2108 819 
336  8017 7439
337  3263 5810
338  5471 4900
339  9750 6564
340  9577 9757
341  5378 611 
342  5186 5199
343  2219 7609
344  8765 6032
345  9281 2200
346  547  7169
347  8740 1326
348  5776 7554
349  8994 7383
350  5100 2910
351  4378 2609
352  783  9038
353  3574 8447
354  4064 3319
355  6447 8859
356  686  2308
357  2538 975 
358  6497 1939
359  7533 8008
360  6811 9244
361  408  1906
362  7125 6779
363  6939 5625
364  3194 4962
365  3404 4061
366  6330 3750
367  509  2053
368  8079 6874
369  9154 8401
370  2933 5549
371  4487 1730
372  2478 990 
373  6986 5388
374  8690 6726
375  8567 3053
376  9540 9533
377  7038 1518
378  9426 7847
379  239  7110
380  7253 8869
381  4241 282 
382  5904 6450
383  9144 8703
384  7335 899 
385  8772 1063
386  7771 1633
387  1493 7548
388  6205 8704
389  7122 3664
390  7439 7947
391  5164 8036
392  2885 7866
393  9695 5368
394  2836 2886
395  966  1786
396  6938 1458
397  2472 441 
398  8228 7049
399  2664 7820
400  3129 8997
401  9744 7848
402  5271 4727
403  6692 6256
404  7597 2876
405  9412 1269
406  3935 5150
407  4021 583 
408  1210 6908
409  9293 6130
410  977  2384
411  2559 6261
412  8024 9673
413  780  9474
414  152  7859
415  9698 2002
416  7705 2990
417  379  7272
418  2090 544 
419  9369 7197
420  5010 6863
421  9550 66  
422  8232 3727
423  7781 3081
424  5906 7884
425  4923 781 
426  2584 1923
427  2769 9270
428  4254 8478
429  5133 7603
430  5315 7800
431  8936 2873
432  7836 8043
433  7560 6572
434  4828 8336
435  4045 4036
436  9310 5367
437  2314 5914
438  2631 8700
439  8799 1972
440  1730 4677
441  8029 5370
442  7319 7815
443  3468 8104
444  6611 4946
445  9929 5659
446  4971 3010
447  4372 9088
448  6991 3403
449  9160 6162
450  7237 8512
451  9241 5352
452  3172 4628
453  2532 4191
454  2858 2780
455  9693 8816
456  5917 7047
457  2229 6683
458  1171 229 
459  5559 9408
460  6398 2736
461  715  5433
462  9549 2592
463  4258 9350
464  8441 7755
465  9154 1683
466  444  8873
467  9245 4035
468  9882 5817
469  1143 4266
470  1068 4429
471  7131 3628
472  6399 8122
473  6860 9029
474  8550 793 
475  1484 1686
476  243  3376
477  8514 8575
478  57   9433
479  80   5334
480  905  5701
481  703  8259
482  3100 1286
483  9401 3164
484  3113 3789
485  3616 6452
486  1967 6371
487  1072 9757
488  8787 5998
489  7598 8559
490  7006 8351
491  3860 2195
492  6115 4125
493  89   2018
494  3193 8055
495  1623 5662
496  8204 8920
497  4966 5940
498  3748 6348
499  2217 5745
500  7484 2861
501  2654 5613
DEMAND_SECTION
1    0   
2    5   
3    9   
4    8   
5    4   
6    2   
7    56  
8    5   
9    1   
10   2   
11   51  
12   85  
13   7   
14   3   
15   9   
16   4   
17   4   
18   9   
19   10  
20   5   
21   5   
22   7   
23   8   
24   1   
25   1   
26   4   
27   5   
28   3   
29   7   
30   10  
31   9   
32   7   
33   5   
34   70  
35   8   
36   10  
37   7   
38   1   
39   7   
40   6   
41   7   
42   99  
43   96  
44   5   
45   6   
46   6   
47   3   
48   8   
49   3   
50   10  
51   7   
52   8   
53   2   
54   65  
55   99  
56   5   
57   10  
58   8   
59   6   
60   4   
61   6   
62   10  
63   2   
64   5   
65   8   
66   7   
67   2   
68   7   
69   5   
70   3   
71   7   
72   10  
73   9   
74   5   
75   5   
76   8   
77   8   
78   4   
79   8   
80   10  
81   9   
82   5   
83   10  
84   2   
85   7   
86   6   
87   81  
88   5   
89   6   
90   9   
91   4   
92   1   
93   10  
94   7   
95   4   
96   9   
97   89  
98   8   
99   5   
100  2   
101  4   
102  8   
103  9   
104  3   
105  2   
106  10  
107  6   
108  8   
109  4   
110  3   
111  2   
112  8   
113  5   
114  1   
115  9   
116  88  
117  8   
118  10  
119  9   
120  4   
121  1   
122  3   
123  10  
124  65  
125  8   
126  7   
127  6   
128  7   
129  1   
130  6   
131  7   
132  5   
133  2   
134  7   
135  8   
136  7   
137  90  
138  6   
139  9   
140  3   
141  7   
142  3   
143  8   
144  9   
145  1   
146  6   
147  6   
148  6   
149  9   
150  10  
151  5   
152  8   
153  7   
154  4   
155  9   
156  8   
157  3   
158  5   
159  8   
160  2   
161  4   
162  3   
163  7   
164  2   
165  10  
166  3   
167  7   
168  8   
169  1   
170  10  
171  2   
172  3   
173  3   
174  7   
175  3   
176  1   
177  7   
178  1   
179  10  
180  10  
181  1   
182  4   
183  10  
184  1   
185  10  
186  74  
187  4   
188  8   
189  62  
190  9   
191  10  
192  1   
193  7   
194  8   
195  4   
196  99  
197  4   
198  8   
199  9   
200  2   
201  1   
202  10  
203  6   
204  9   
205  5   
206  5   
207  6   
208  1   
209  1   
210  6   
211  6   
212  1   
213  1   
214  8   
215  3   
216  6   
217  8   
218  10  
219  7   
220  7   
221  3   
222  9   
223  9   
224  7   
225  1   
226  2   
227  6   
228  3   
229  2   
230  7   
231  9   
232  6   
233  10  
234  5   
235  5   
236  4   
237  10  
238  3   
239  2   
240  3   
241  6   
242  2   
243  8   
244  2   
245  6   
246  10  
247  5   
248  7   
249  1   
250  8   
251  8   
252  9   
253  1   
254  7   
255  2   
256  10  
257  6   
258  10  
259  2   
260  2   
261  3   
262  2   
263  8   
264  3   
265  3   
266  1   
267  6   
268  2   
269  4   
270  6   
271  1   
272  4   
273  4   
274  9   
275  10  
276  3   
277  4   
278  4   
279  68  
280  9   
281  4   
282  8   
283  1   
284  8   
285  10  
286  6   
287  6   
288  5   
289  51  
290  5   
291  2   
292  10  
293  2   
294  4   
295  8   
296  8   
297  82  
298  6   
299  7   
300  1   
301  9   
302  9   
303  10  
304  4   
305  3   
306  4   
307  4   
308  1   
309  4   
310  2   
311  6   
312  4   
313  9   
314  1   
315  1   
316  3   
317  4   
318  8   
319  6   
320  1   
321  7   
322  6   
323  5   
324  2   
325  3   
326  9   
327  8   
328  5   
329  7   
330  8   
331  9   
332  9   
333  6   
334  7   
335  8   
336  10  
337  9   
338  1   
339  5   
340  1   
341  4   
342  62  
343  4   
344  2   
345  1   
346  10  
347  1   
348  8   
349  80  
350  1   
351  10  
352  6   
353  4   
354  9   
355  6   
356  3   
357  10  
358  50  
359  6   
360  10  
361  6   
362  5   
363  5   
364  7   
365  7   
366  5   
367  83  
368  9   
369  7   
370  5   
371  97  
372  53  
373  7   
374  10  
375  6   
376  5   
377  10  
378  4   
379  3   
380  7   
381  7   
382  10  
383  9   
384  8   
385  1   
386  2   
387  9   
388  4   
389  2   
390  8   
391  7   
392  5   
393  3   
394  4   
395  10  
396  1   
397  10  
398  1   
399  5   
400  7   
401  8   
402  7   
403  6   
404  4   
405  8   
406  7   
407  4   
408  10  
409  5   
410  2   
411  4   
412  1   
413  6   
414  4   
415  6   
416  1   
417  8   
418  9   
419  5   
420  5   
421  10  
422  6   
423  6   
424  3   
425  9   
426  6   
427  7   
428  1   
429  8   
430  1   
431  6   
432  4   
433  6   
434  2   
435  7   
436  8   
437  9   
438  7   
439  8   
440  7   
441  6   
442  7   
443  7   
444  4   
445  4   
446  10  
447  6   
448  3   
449  1   
450  2   
451  3   
452  6   
453  2   
454  3   
455  4   
456  4   
457  2   
458  6   
459  5   
460  8   
461  3   
462  5   
463  5   
464  10  
465  1   
466  6   
467  5   
468  73  
469  4   
470  4   
471  5   
472  6   
473  7   
474  5   
475  10  
476  1   
477  6   
478  1   
479  4   
480  9   
481  1   
482  6   
483  9   
484  6   
485  6   
486  8   
487  6   
488  4   
489  1   
490  6   
491  2   
492  9   
493  5   
494  6   
495  3   
496  7   
497  6   
498  9   
499  84  
500  7   
501  71  
DEPOT_SECTION
1
-1
EOF
