NAME : XML1000_2323_01
COMMENT : Generated as the XML100 dataset from the CVRPLIB
TYPE : CVRP
DIMENSION : 1001
EDGE_WEIGHT_TYPE : EUC_2D
CAPACITY : 46
NODE_COORD_SECTION
1    5000 5000
2    5099 9456
3    9958 9316
4    7521 7459
5    9939 1180
6    6660 4649
7    7093 6671
8    1621 9114
9    2846 9513
10   2178 7486
11   305  75  
12   9924 3053
13   8896 9168
14   9468 5696
15   8478 2436
16   4500 2351
17   5277 1210
18   2803 308 
19   9884 8467
20   2280 6373
21   9186 3127
22   5573 1855
23   273  426 
24   817  9918
25   2868 5796
26   6504 5317
27   3273 9824
28   8839 9557
29   4461 8162
30   3125 8565
31   9787 4827
32   2909 9535
33   7556 9819
34   9353 2423
35   4124 6063
36   3415 7584
37   8642 9634
38   8301 7689
39   7466 4957
40   2562 3674
41   5839 7249
42   1508 2749
43   3680 6299
44   3130 9166
45   8661 1838
46   453  901 
47   7092 2499
48   94   174 
49   8590 2163
50   7906 9864
51   2724 8018
52   7516 9308
53   9668 8646
54   5979 5043
55   4048 6787
56   4350 6059
57   4278 7044
58   3836 6882
59   5694 5374
60   6556 512 
61   8190 1028
62   6608 376 
63   5979 7081
64   2655 5557
65   9936 8997
66   9101 3416
67   6496 9999
68   9719 2792
69   642  429 
70   8471 8821
71   5319 8223
72   59   7275
73   8064 7690
74   960  1065
75   9595 7039
76   7376 1939
77   3257 6530
78   4320 6857
79   3154 3956
80   1518 4040
81   8422 1232
82   6151 6548
83   2452 6298
84   3204 9642
85   7705 2365
86   4785 9702
87   4755 3763
88   9454 5907
89   9991 7399
90   9618 2737
91   4750 8742
92   243  1944
93   9669 1722
94   8577 9085
95   8549 7785
96   8504 9287
97   4544 5006
98   98   1173
99   5094 3658
100  3602 9339
101  1977 7571
102  204  1587
103  9111 873 
104  7810 9899
105  3834 6728
106  9657 2944
107  7290 8188
108  7163 7716
109  7300 4021
110  4544 7811
111  4311 6872
112  956  2694
113  9064 4707
114  4616 6744
115  4714 5482
116  3649 7034
117  9798 380 
118  2584 9517
119  2517 3888
120  4688 7439
121  9955 9149
122  8774 8817
123  5917 730 
124  9727 3391
125  6251 6476
126  5545 2919
127  7914 9224
128  9609 3284
129  4623 6489
130  9482 2352
131  6430 3298
132  1273 5658
133  7598 9356
134  2777 864 
135  5480 8648
136  9864 9906
137  8764 2125
138  2792 9862
139  4539 7906
140  776  5872
141  1094 8346
142  4555 1287
143  6379 2727
144  9204 3052
145  2538 9931
146  2354 8172
147  8726 3099
148  6123 9882
149  198  759 
150  524  3422
151  3843 2909
152  9837 9054
153  691  2807
154  2535 706 
155  9725 7857
156  659  902 
157  821  598 
158  9354 4345
159  6511 7196
160  7824 9275
161  7560 1085
162  7578 8049
163  3306 9757
164  2697 3206
165  7991 8985
166  8517 5790
167  5850 1144
168  4738 3302
169  4641 6124
170  2746 9472
171  6667 7811
172  3544 9338
173  9829 915 
174  1375 8844
175  4242 6458
176  9122 3137
177  4249 6592
178  1246 4095
179  5501 3043
180  6022 7601
181  4874 5149
182  3141 8130
183  8639 8769
184  6935 5380
185  9379 7663
186  9418 4837
187  677  3071
188  3922 7203
189  5394 7318
190  4526 6213
191  9958 4006
192  7258 7886
193  8371 8219
194  5228 5587
195  1580 63  
196  9064 9288
197  3572 9353
198  7151 8210
199  8370 9801
200  9501 2552
201  49   9901
202  9219 1882
203  8227 9710
204  9999 3160
205  2074 6548
206  4139 6750
207  9863 2253
208  4141 6170
209  6421 1544
210  5893 7961
211  9640 787 
212  7325 5623
213  2990 1306
214  700  6484
215  9858 8128
216  9412 2453
217  9323 3672
218  4825 7945
219  6127 4625
220  6227 9992
221  8052 8813
222  7890 1997
223  9234 2112
224  8776 9014
225  7231 1616
226  9897 2761
227  4060 4547
228  2733 9594
229  1064 9577
230  5767 362 
231  4854 7132
232  5016 267 
233  7988 18  
234  9298 2945
235  7291 9725
236  786  1111
237  548  712 
238  4172 5901
239  3053 8046
240  9544 7787
241  4045 8687
242  5057 6957
243  2030 9357
244  1812 7911
245  4451 8521
246  8388 9718
247  3702 6504
248  3040 4958
249  8130 9902
250  4353 6059
251  89   201 
252  5546 7657
253  4792 7413
254  563  8530
255  1332 588 
256  9533 9127
257  176  683 
258  6785 7481
259  8284 9744
260  7655 9050
261  737  603 
262  9525 2338
263  9237 4003
264  5756 4431
265  8464 4544
266  7266 9059
267  6013 6639
268  2278 4346
269  7650 5147
270  9174 3125
271  3319 9933
272  9185 9899
273  4905 5990
274  457  27  
275  9040 9982
276  3967 7792
277  9827 3688
278  9578 8911
279  7581 8204
280  2305 455 
281  8485 9981
282  3945 6361
283  0    278 
284  8599 5054
285  4796 5707
286  7524 2792
287  4640 8057
288  1453 3428
289  2702 2855
290  4335 7039
291  9270 3049
292  192  7440
293  4505 6414
294  7646 4816
295  6922 8820
296  4576 6852
297  1957 4374
298  247  1051
299  1458 757 
300  5183 6144
301  6488 7466
302  9779 9299
303  811  9502
304  4725 6774
305  2508 8410
306  9144 9606
307  7475 8849
308  7939 6827
309  5197 5054
310  8315 4319
311  9609 9176
312  5041 1563
313  6322 3124
314  8724 4761
315  4366 5439
316  5595 5717
317  8523 9023
318  4546 2625
319  5293 539 
320  8400 2721
321  6944 9990
322  9938 2416
323  9242 8158
324  3184 1589
325  5735 8703
326  6628 7235
327  2399 9849
328  82   8926
329  4184 6581
330  1519 2490
331  9998 2492
332  4632 6963
333  2645 9743
334  9807 2809
335  32   345 
336  5721 8825
337  5973 1155
338  283  2320
339  4707 5823
340  9734 2307
341  565  6534
342  1879 359 
343  1393 369 
344  9030 7342
345  2647 1203
346  2274 9392
347  1850 1582
348  8588 3618
349  7510 6360
350  6129 8457
351  6889 5839
352  9268 2370
353  5447 5414
354  8207 9013
355  9919 2000
356  3168 2866
357  6114 7777
358  6147 725 
359  8410 8521
360  8135 9828
361  6938 7333
362  9552 412 
363  9548 3569
364  7043 7059
365  362  865 
366  8051 877 
367  4214 7147
368  3291 7400
369  587  754 
370  2528 936 
371  4293 4316
372  5170 5195
373  9748 9416
374  2914 2042
375  7755 8595
376  9682 2155
377  5081 6357
378  3659 8780
379  9620 7862
380  4056 6513
381  7098 6784
382  8868 9583
383  4147 9447
384  388  657 
385  425  937 
386  7360 6631
387  71   8229
388  200  2589
389  2645 7915
390  9722 262 
391  5825 5598
392  212  177 
393  2972 8627
394  6219 2445
395  4192 1180
396  9785 9021
397  4739 5007
398  9007 4205
399  3134 8923
400  5246 9045
401  9642 2865
402  160  5998
403  9351 859 
404  4622 8792
405  7010 6634
406  9412 3258
407  9525 6891
408  1781 9965
409  1750 6910
410  46   7185
411  3626 9412
412  283  7054
413  2730 4497
414  2760 9878
415  2128 904 
416  5525 6749
417  4039 4740
418  8336 9921
419  3144 9693
420  3145 5732
421  988  3456
422  8636 9248
423  3894 9404
424  9534 3557
425  9058 8846
426  103  682 
427  9312 1921
428  622  188 
429  679  878 
430  5798 5874
431  1147 1164
432  465  2753
433  2786 8628
434  7913 1392
435  3548 7246
436  9131 8563
437  8384 9431
438  3343 9873
439  7502 9969
440  3032 5992
441  7664 9637
442  2137 3250
443  385  177 
444  2691 510 
445  9013 8777
446  217  2516
447  4857 5743
448  2340 9400
449  4245 7507
450  1587 8360
451  7738 8184
452  4719 6686
453  3658 6854
454  5222 5215
455  3282 9434
456  7965 9675
457  3169 9638
458  6125 5480
459  7429 9504
460  7965 9582
461  8908 9611
462  8774 239 
463  2667 2758
464  2264 9748
465  3568 6311
466  8652 5442
467  9690 3189
468  9088 8992
469  6764 3905
470  3894 6265
471  9849 2808
472  6105 7507
473  9541 2874
474  9452 6539
475  8625 3756
476  8136 4934
477  7340 6632
478  6012 6296
479  9099 2768
480  3484 4837
481  7694 4490
482  2340 6153
483  9259 5995
484  8681 2746
485  9323 3627
486  3044 9253
487  4571 7216
488  6287 7147
489  9712 2459
490  6924 5092
491  3272 1149
492  9809 9430
493  7809 2300
494  8793 8374
495  7024 5901
496  3946 2761
497  7498 873 
498  8086 9854
499  15   2491
500  4646 4297
501  9286 2098
502  7259 9594
503  2995 6909
504  315  525 
505  1241 973 
506  4907 7604
507  8116 2214
508  9949 8889
509  3242 9206
510  9651 4244
511  5581 8768
512  8003 1359
513  427  1226
514  6905 1899
515  2720 5152
516  377  637 
517  9686 1972
518  6802 578 
519  2542 7385
520  6087 1197
521  4499 5841
522  1142 3088
523  6354 8026
524  4740 813 
525  215  1347
526  9599 8854
527  2391 972 
528  3581 5113
529  4119 7341
530  2133 1170
531  4511 6602
532  4616 6798
533  8271 9880
534  4458 7082
535  9007 8771
536  2826 6480
537  7471 7008
538  9249 5905
539  278  879 
540  2282 7514
541  1572 5054
542  3955 8607
543  3961 6512
544  9220 9116
545  1105 197 
546  5747 6579
547  7036 924 
548  8713 3798
549  2813 1281
550  927  9974
551  5581 4691
552  5136 3091
553  1892 6849
554  1759 7900
555  5414 7079
556  7385 9246
557  413  435 
558  1312 115 
559  2729 3715
560  4807 8216
561  9292 9734
562  2716 9154
563  4310 6116
564  828  5728
565  8724 8786
566  7906 9816
567  3262 82  
568  444  602 
569  267  499 
570  1996 9800
571  791  586 
572  8550 2923
573  5969 1899
574  7240 9898
575  3504 2402
576  3083 9313
577  3375 9704
578  5074 6706
579  6312 1104
580  3368 2085
581  1112 8768
582  9054 9080
583  9819 9693
584  2306 1712
585  2917 8543
586  6887 2272
587  9877 9525
588  1613 1559
589  2930 2798
590  4894 9206
591  7646 8977
592  3781 9839
593  8629 8454
594  3999 8117
595  7485 6949
596  4356 9789
597  9403 9280
598  6165 9472
599  1111 6001
600  2678 9773
601  4075 8994
602  6645 7671
603  8902 8853
604  1893 7828
605  6599 9982
606  246  146 
607  1414 4013
608  5723 1445
609  5451 5845
610  9502 1342
611  1490 1749
612  4016 7245
613  9362 3060
614  3919 1873
615  8268 7797
616  7691 3975
617  9814 9561
618  6816 9088
619  4367 6587
620  5233 3975
621  4673 4986
622  7400 7788
623  126  3433
624  2224 6888
625  9927 2456
626  9169 2279
627  3851 1750
628  3141 9331
629  8471 2953
630  289  165 
631  195  318 
632  9556 2785
633  2857 9769
634  3115 9339
635  6467 9478
636  849  2711
637  759  387 
638  7143 7700
639  9963 1930
640  878  9578
641  9851 2452
642  9124 8787
643  5901 6115
644  5087 9860
645  2895 1632
646  280  9134
647  6329 8929
648  3004 5504
649  9801 8018
650  4148 2884
651  1442 9220
652  5461 8168
653  9554 2698
654  6934 3757
655  3172 9800
656  8152 9435
657  6773 4444
658  5613 4411
659  3840 3654
660  6155 6711
661  7590 8322
662  2523 7396
663  9046 3655
664  4703 4697
665  7234 2725
666  8298 8182
667  7286 7713
668  2467 8154
669  6252 6901
670  7148 5263
671  3172 8966
672  3128 5712
673  9253 530 
674  1309 4288
675  604  520 
676  9916 9377
677  156  5594
678  6882 5038
679  1901 2463
680  9798 7024
681  2108 819 
682  8017 7439
683  3263 5810
684  5471 4900
685  9750 6564
686  9577 9757
687  9121 2792
688  5378 611 
689  5186 5199
690  2219 7609
691  9074 7966
692  8765 6032
693  9281 2200
694  4022 6573
695  8497 7399
696  7906 9471
697  547  7169
698  3073 8827
699  8740 1326
700  5776 7554
701  8994 7383
702  5100 2910
703  4378 2609
704  783  9038
705  4269 9428
706  3574 8447
707  4064 3319
708  3536 8903
709  6447 8859
710  3648 5274
711  825  8676
712  3659 8382
713  2564 8997
714  686  2308
715  8069 2285
716  576  807 
717  2538 975 
718  6497 1939
719  7533 8008
720  3068 9690
721  6811 9244
722  4305 9903
723  408  1906
724  3319 6591
725  7125 6779
726  9225 9416
727  6939 5625
728  6590 680 
729  3194 4962
730  5429 6917
731  3404 4061
732  4519 6646
733  6330 3750
734  472  587 
735  509  2053
736  8079 6874
737  9154 8401
738  2933 5549
739  4487 1730
740  8364 8707
741  9514 3332
742  2478 990 
743  6986 5388
744  2991 9665
745  8690 6726
746  314  976 
747  8567 3053
748  9540 9533
749  7038 1518
750  8793 8248
751  9429 1789
752  9426 7847
753  239  7110
754  7253 8869
755  4241 282 
756  5904 6450
757  9144 8703
758  7335 899 
759  8772 1063
760  7771 1633
761  9094 3122
762  4922 9915
763  8941 9518
764  1493 7548
765  6205 8704
766  5086 7094
767  371  664 
768  7122 3664
769  7439 7947
770  5164 8036
771  2885 7866
772  9695 5368
773  2836 2886
774  4650 8085
775  8088 9358
776  3334 9878
777  9918 8452
778  966  1786
779  4249 5283
780  4195 6843
781  6938 1458
782  2472 441 
783  4309 7481
784  8228 7049
785  9423 183 
786  822  621 
787  2664 7820
788  3129 8997
789  960  1267
790  9744 7848
791  5271 4727
792  6692 6256
793  9526 1294
794  7597 2876
795  1346 7958
796  4793 7099
797  9412 1269
798  3935 5150
799  4021 583 
800  4234 6083
801  8562 2807
802  9049 8893
803  4337 6920
804  9458 1911
805  3542 4791
806  8617 9748
807  3311 9945
808  8191 9363
809  2213 9489
810  9197 1849
811  9218 3415
812  4917 6558
813  8922 3122
814  3646 7457
815  609  419 
816  4851 6332
817  3251 8627
818  9427 2694
819  4795 3918
820  431  1059
821  9817 3000
822  1210 6908
823  436  960 
824  9293 6130
825  6161 5754
826  977  2384
827  2559 6261
828  8024 9673
829  780  9474
830  152  7859
831  9698 2002
832  8497 437 
833  3375 6310
834  5198 5946
835  7705 2990
836  4622 6650
837  379  7272
838  2090 544 
839  8441 3784
840  2145 9181
841  9102 1954
842  4931 6456
843  9369 7197
844  427  1223
845  5010 6863
846  3331 9664
847  7194 8535
848  7365 8370
849  7979 8961
850  4917 6730
851  7555 6547
852  4591 7656
853  4541 2852
854  9550 66  
855  8232 3727
856  7781 3081
857  4440 6707
858  5906 7884
859  8799 1444
860  9705 9141
861  4338 7342
862  4852 4289
863  9386 9017
864  4923 781 
865  2584 1923
866  3122 8189
867  2769 9270
868  3058 8467
869  4254 8478
870  5133 7603
871  9205 2929
872  8611 6116
873  659  747 
874  4123 6748
875  9302 9950
876  5315 7800
877  8936 2873
878  4353 6805
879  7836 8043
880  7560 6572
881  4828 8336
882  4045 4036
883  9310 5367
884  8949 9923
885  6980 9069
886  2553 9447
887  3058 9821
888  8232 9224
889  7488 9552
890  2314 5914
891  2631 8700
892  8799 1972
893  1730 4677
894  8029 5370
895  7319 7815
896  3468 8104
897  6611 4946
898  9929 5659
899  4971 3010
900  85   157 
901  4090 7772
902  4372 9088
903  6991 3403
904  9160 6162
905  7237 8512
906  638  580 
907  9241 5352
908  3172 4628
909  2532 4191
910  2858 2780
911  9693 8816
912  2224 9458
913  5917 7047
914  2229 6683
915  9325 4079
916  8940 9491
917  1171 229 
918  8813 8731
919  7724 8787
920  3194 9221
921  5559 9408
922  6398 2736
923  9086 9599
924  4155 9634
925  715  5433
926  9549 2592
927  3136 4801
928  4258 9350
929  8441 7755
930  9154 1683
931  3188 9442
932  9623 2806
933  444  8873
934  2695 9401
935  3176 9448
936  9245 4035
937  8933 2747
938  9410 9144
939  9767 9238
940  9882 5817
941  9247 1898
942  9965 9718
943  1143 4266
944  1068 4429
945  7131 3628
946  9999 2464
947  6399 8122
948  3489 9583
949  6860 9029
950  2578 9191
951  8550 793 
952  4932 7766
953  132  2403
954  4392 6129
955  1484 1686
956  9957 9355
957  243  3376
958  8514 8575
959  2189 9274
960  57   9433
961  9348 9774
962  80   5334
963  9721 9325
964  905  5701
965  703  8259
966  9675 911 
967  3100 1286
968  9401 3164
969  9811 3179
970  3113 3789
971  9793 2837
972  4774 9885
973  3616 6452
974  7858 9954
975  1967 6371
976  3946 9894
977  1072 9757
978  8787 5998
979  7880 9716
980  4518 6681
981  7598 8559
982  7006 8351
983  3860 2195
984  6115 4125
985  89   2018
986  1669 193 
987  8307 9868
988  3166 8679
989  9988 9739
990  3193 8055
991  1623 5662
992  3388 9744
993  8204 8920
994  4966 5940
995  3748 6348
996  407  2261
997  2217 5745
998  7484 2861
999  4035 9969
1000 9067 2963
1001 2654 5613
DEMAND_SECTION
1    0   
2    8   
3    9   
4    10  
5    7   
6    2   
7    1   
8    8   
9    4   
10   10  
11   7   
12   3   
13   8   
14   9   
15   7   
16   7   
17   8   
18   8   
19   8   
20   7   
21   5   
22   9   
23   7   
24   7   
25   8   
26   6   
27   5   
28   2   
29   2   
30   7   
31   5   
32   7   
33   6   
34   1   
35   8   
36   2   
37   3   
38   6   
39   7   
40   8   
41   4   
42   9   
43   6   
44   6   
45   5   
46   8   
47   9   
48   3   
49   6   
50   7   
51   10  
52   5   
53   10  
54   3   
55   6   
56   2   
57   10  
58   7   
59   5   
60   7   
61   10  
62   8   
63   3   
64   8   
65   10  
66   7   
67   4   
68   8   
69   6   
70   5   
71   6   
72   4   
73   5   
74   8   
75   5   
76   9   
77   10  
78   7   
79   1   
80   8   
81   1   
82   4   
83   5   
84   10  
85   9   
86   2   
87   10  
88   10  
89   10  
90   5   
91   7   
92   7   
93   9   
94   4   
95   4   
96   4   
97   5   
98   2   
99   9   
100  2   
101  10  
102  4   
103  6   
104  7   
105  1   
106  9   
107  3   
108  3   
109  3   
110  5   
111  3   
112  6   
113  3   
114  3   
115  8   
116  3   
117  3   
118  8   
119  1   
120  6   
121  7   
122  10  
123  3   
124  3   
125  7   
126  10  
127  1   
128  9   
129  10  
130  6   
131  9   
132  10  
133  9   
134  3   
135  8   
136  5   
137  9   
138  3   
139  7   
140  7   
141  4   
142  10  
143  1   
144  7   
145  5   
146  10  
147  6   
148  5   
149  4   
150  10  
151  7   
152  6   
153  2   
154  9   
155  8   
156  8   
157  1   
158  1   
159  9   
160  1   
161  4   
162  5   
163  6   
164  5   
165  10  
166  9   
167  2   
168  8   
169  1   
170  8   
171  4   
172  9   
173  8   
174  2   
175  9   
176  7   
177  5   
178  2   
179  4   
180  3   
181  6   
182  8   
183  8   
184  8   
185  4   
186  9   
187  7   
188  3   
189  1   
190  3   
191  10  
192  2   
193  1   
194  3   
195  9   
196  7   
197  6   
198  7   
199  3   
200  2   
201  5   
202  6   
203  1   
204  9   
205  1   
206  10  
207  4   
208  5   
209  6   
210  10  
211  4   
212  8   
213  10  
214  6   
215  8   
216  4   
217  9   
218  4   
219  7   
220  7   
221  3   
222  7   
223  2   
224  3   
225  3   
226  4   
227  5   
228  7   
229  3   
230  6   
231  5   
232  5   
233  7   
234  1   
235  7   
236  10  
237  10  
238  8   
239  8   
240  6   
241  5   
242  7   
243  5   
244  9   
245  4   
246  7   
247  10  
248  3   
249  4   
250  6   
251  1   
252  5   
253  10  
254  5   
255  3   
256  7   
257  10  
258  1   
259  3   
260  2   
261  8   
262  4   
263  7   
264  4   
265  7   
266  3   
267  6   
268  4   
269  3   
270  10  
271  5   
272  10  
273  5   
274  1   
275  2   
276  5   
277  3   
278  1   
279  7   
280  2   
281  5   
282  1   
283  1   
284  5   
285  2   
286  8   
287  1   
288  2   
289  10  
290  6   
291  8   
292  9   
293  2   
294  10  
295  2   
296  3   
297  8   
298  10  
299  4   
300  3   
301  9   
302  4   
303  8   
304  1   
305  9   
306  9   
307  7   
308  1   
309  4   
310  4   
311  5   
312  1   
313  6   
314  3   
315  8   
316  3   
317  8   
318  10  
319  4   
320  9   
321  9   
322  3   
323  1   
324  3   
325  10  
326  5   
327  9   
328  2   
329  7   
330  2   
331  2   
332  1   
333  8   
334  4   
335  7   
336  8   
337  3   
338  10  
339  1   
340  8   
341  8   
342  2   
343  8   
344  6   
345  9   
346  9   
347  2   
348  5   
349  5   
350  8   
351  10  
352  6   
353  3   
354  1   
355  1   
356  4   
357  8   
358  6   
359  2   
360  4   
361  3   
362  3   
363  10  
364  4   
365  3   
366  10  
367  8   
368  10  
369  5   
370  1   
371  5   
372  6   
373  3   
374  1   
375  8   
376  2   
377  6   
378  1   
379  3   
380  1   
381  7   
382  2   
383  3   
384  2   
385  3   
386  6   
387  10  
388  3   
389  5   
390  9   
391  5   
392  8   
393  1   
394  9   
395  5   
396  3   
397  2   
398  10  
399  7   
400  4   
401  2   
402  3   
403  1   
404  4   
405  3   
406  4   
407  3   
408  4   
409  9   
410  1   
411  4   
412  7   
413  3   
414  1   
415  7   
416  5   
417  1   
418  7   
419  5   
420  4   
421  9   
422  5   
423  4   
424  4   
425  2   
426  8   
427  8   
428  10  
429  9   
430  7   
431  6   
432  8   
433  3   
434  8   
435  3   
436  5   
437  6   
438  4   
439  3   
440  8   
441  10  
442  4   
443  9   
444  9   
445  3   
446  3   
447  9   
448  7   
449  10  
450  3   
451  10  
452  4   
453  5   
454  5   
455  2   
456  3   
457  9   
458  2   
459  1   
460  6   
461  10  
462  6   
463  3   
464  6   
465  4   
466  10  
467  2   
468  10  
469  7   
470  9   
471  6   
472  7   
473  1   
474  10  
475  10  
476  9   
477  5   
478  1   
479  6   
480  7   
481  7   
482  8   
483  10  
484  2   
485  9   
486  3   
487  7   
488  4   
489  2   
490  8   
491  6   
492  2   
493  4   
494  2   
495  4   
496  3   
497  2   
498  4   
499  1   
500  3   
501  5   
502  3   
503  10  
504  5   
505  5   
506  5   
507  8   
508  6   
509  8   
510  8   
511  7   
512  5   
513  2   
514  6   
515  1   
516  4   
517  5   
518  9   
519  8   
520  3   
521  2   
522  8   
523  5   
524  9   
525  5   
526  9   
527  4   
528  4   
529  3   
530  10  
531  4   
532  1   
533  6   
534  3   
535  5   
536  10  
537  10  
538  6   
539  1   
540  10  
541  10  
542  1   
543  4   
544  3   
545  10  
546  9   
547  2   
548  6   
549  5   
550  5   
551  6   
552  7   
553  2   
554  10  
555  3   
556  9   
557  5   
558  9   
559  10  
560  4   
561  8   
562  2   
563  4   
564  5   
565  7   
566  5   
567  6   
568  6   
569  7   
570  8   
571  6   
572  5   
573  8   
574  4   
575  7   
576  10  
577  1   
578  1   
579  3   
580  9   
581  6   
582  4   
583  2   
584  10  
585  3   
586  4   
587  1   
588  5   
589  4   
590  5   
591  1   
592  5   
593  4   
594  5   
595  3   
596  10  
597  8   
598  5   
599  9   
600  7   
601  9   
602  3   
603  9   
604  3   
605  5   
606  1   
607  5   
608  3   
609  4   
610  4   
611  3   
612  2   
613  6   
614  9   
615  7   
616  7   
617  10  
618  9   
619  3   
620  6   
621  5   
622  4   
623  8   
624  8   
625  4   
626  3   
627  4   
628  2   
629  8   
630  3   
631  3   
632  3   
633  8   
634  7   
635  7   
636  6   
637  10  
638  10  
639  2   
640  9   
641  1   
642  8   
643  3   
644  1   
645  4   
646  5   
647  2   
648  6   
649  10  
650  7   
651  9   
652  5   
653  4   
654  4   
655  3   
656  5   
657  9   
658  2   
659  7   
660  10  
661  9   
662  2   
663  6   
664  6   
665  10  
666  3   
667  8   
668  9   
669  8   
670  5   
671  8   
672  1   
673  10  
674  7   
675  6   
676  7   
677  10  
678  3   
679  1   
680  3   
681  7   
682  9   
683  6   
684  4   
685  2   
686  10  
687  3   
688  5   
689  10  
690  9   
691  10  
692  4   
693  3   
694  1   
695  10  
696  10  
697  7   
698  6   
699  5   
700  2   
701  8   
702  8   
703  4   
704  9   
705  2   
706  2   
707  7   
708  7   
709  1   
710  4   
711  8   
712  9   
713  7   
714  3   
715  2   
716  5   
717  1   
718  8   
719  10  
720  1   
721  6   
722  9   
723  9   
724  9   
725  8   
726  2   
727  10  
728  10  
729  1   
730  6   
731  7   
732  3   
733  4   
734  1   
735  2   
736  3   
737  4   
738  6   
739  2   
740  9   
741  2   
742  6   
743  5   
744  8   
745  4   
746  8   
747  7   
748  1   
749  6   
750  1   
751  8   
752  9   
753  2   
754  2   
755  2   
756  9   
757  3   
758  7   
759  9   
760  10  
761  10  
762  4   
763  3   
764  10  
765  6   
766  10  
767  4   
768  5   
769  6   
770  4   
771  8   
772  10  
773  7   
774  5   
775  3   
776  10  
777  3   
778  3   
779  10  
780  1   
781  3   
782  10  
783  2   
784  3   
785  6   
786  1   
787  6   
788  8   
789  7   
790  4   
791  5   
792  6   
793  3   
794  2   
795  5   
796  9   
797  9   
798  1   
799  3   
800  7   
801  10  
802  5   
803  10  
804  7   
805  8   
806  3   
807  8   
808  3   
809  7   
810  7   
811  3   
812  1   
813  9   
814  6   
815  2   
816  7   
817  1   
818  7   
819  10  
820  10  
821  5   
822  4   
823  8   
824  7   
825  1   
826  10  
827  3   
828  4   
829  9   
830  6   
831  1   
832  4   
833  1   
834  1   
835  10  
836  10  
837  4   
838  8   
839  8   
840  3   
841  2   
842  5   
843  6   
844  7   
845  2   
846  2   
847  1   
848  5   
849  7   
850  1   
851  5   
852  6   
853  3   
854  9   
855  10  
856  8   
857  7   
858  10  
859  7   
860  9   
861  3   
862  6   
863  10  
864  2   
865  1   
866  1   
867  9   
868  6   
869  8   
870  4   
871  1   
872  5   
873  2   
874  5   
875  8   
876  5   
877  4   
878  6   
879  6   
880  3   
881  7   
882  4   
883  8   
884  8   
885  7   
886  6   
887  5   
888  8   
889  8   
890  10  
891  10  
892  2   
893  5   
894  7   
895  8   
896  9   
897  2   
898  6   
899  7   
900  2   
901  8   
902  7   
903  6   
904  5   
905  4   
906  7   
907  3   
908  2   
909  1   
910  8   
911  10  
912  6   
913  8   
914  6   
915  1   
916  3   
917  3   
918  1   
919  6   
920  10  
921  4   
922  2   
923  7   
924  5   
925  3   
926  8   
927  7   
928  1   
929  1   
930  10  
931  3   
932  1   
933  2   
934  3   
935  7   
936  4   
937  9   
938  7   
939  8   
940  10  
941  10  
942  2   
943  1   
944  3   
945  1   
946  9   
947  4   
948  7   
949  8   
950  5   
951  9   
952  2   
953  5   
954  8   
955  1   
956  10  
957  2   
958  5   
959  2   
960  7   
961  4   
962  6   
963  7   
964  2   
965  6   
966  6   
967  8   
968  2   
969  2   
970  4   
971  10  
972  8   
973  6   
974  1   
975  3   
976  9   
977  4   
978  6   
979  5   
980  10  
981  8   
982  9   
983  5   
984  5   
985  5   
986  1   
987  3   
988  8   
989  1   
990  4   
991  6   
992  6   
993  10  
994  9   
995  6   
996  3   
997  9   
998  1   
999  1   
1000 5   
1001 10  
DEPOT_SECTION
1
-1
EOF
