NAME : XML1000_2223_01
COMMENT : Generated as the XML100 dataset from the CVRPLIB
TYPE : CVRP
DIMENSION : 1001
EDGE_WEIGHT_TYPE : EUC_2D
CAPACITY : 45
NODE_COORD_SECTION
1    5000 5000
2    739  8290
3    1621 9114
4    844  7175
5    8896 9168
6    4476 2843
7    5052 2028
8    2280 6373
9    7756 4156
10   781  4298
11   8358 5532
12   7647 7566
13   8543 9669
14   817  9918
15   7749 8455
16   8045 7611
17   7260 7969
18   7523 7187
19   562  3199
20   361  9125
21   8857 5961
22   8839 9557
23   4595 4659
24   8189 4296
25   6327 5777
26   4541 3359
27   7556 9819
28   6779 5293
29   8033 9106
30   8269 9584
31   7883 5978
32   9525 8650
33   7439 5767
34   7535 6409
35   1508 2749
36   3868 2098
37   9668 8646
38   3472 2788
39   6969 5752
40   425  4995
41   4707 2654
42   7870 8799
43   6020 1027
44   305  9229
45   222  3940
46   5979 7081
47   5071 3429
48   894  7366
49   6771 6546
50   959  9449
51   4778 2375
52   5080 3120
53   4038 3647
54   8264 9524
55   886  7155
56   8480 6918
57   3894 1124
58   8471 8821
59   5091 2248
60   4060 3988
61   8064 7690
62   2869 2174
63   8098 9708
64   5414 7153
65   1518 4040
66   844  8808
67   3916 53  
68   7705 2365
69   1028 9148
70   4539 2420
71   7637 6517
72   4755 3763
73   6845 8158
74   7971 9121
75   71   8973
76   4878 3896
77   7144 8810
78   243  1944
79   7729 8951
80   8197 7446
81   8577 9085
82   6551 8236
83   7331 8893
84   5802 3126
85   4646 2363
86   102  3589
87   8934 9072
88   1297 8617
89   8504 9287
90   7080 8866
91   5094 3658
92   7810 9899
93   7290 8188
94   6528 2759
95   2751 2651
96   146  3389
97   2498 3278
98   7507 7969
99   7709 9532
100  6314 6576
101  59   2224
102  4411 1456
103  347  3263
104  8774 8817
105  5448 2011
106  6251 6476
107  840  3865
108  7914 9224
109  8316 5426
110  3899 2849
111  601  8528
112  4317 2621
113  8597 9152
114  7320 9831
115  7370 9896
116  7487 8819
117  851  8516
118  7609 7993
119  5416 3914
120  8408 7620
121  485  2733
122  7598 9356
123  573  8301
124  1077 8977
125  1094 8346
126  8115 5384
127  450  3440
128  8086 9474
129  8510 6831
130  609  7993
131  7120 8095
132  7005 9651
133  6916 7666
134  2434 1950
135  7501 8058
136  734  8426
137  2313 1803
138  524  3422
139  4140 3037
140  691  2807
141  848  8248
142  7811 8686
143  190  2732
144  8381 4455
145  3197 2514
146  5464 2118
147  9354 4345
148  9773 4955
149  7716 5850
150  8324 5434
151  7578 8049
152  8480 7881
153  5333 1234
154  8258 9828
155  4113 2948
156  7991 8985
157  7185 4882
158  7535 7963
159  127  7261
160  359  3104
161  4559 3316
162  244  4063
163  396  8172
164  5205 2499
165  9058 4727
166  7803 9127
167  952  3255
168  5501 3043
169  4874 5149
170  4591 879 
171  8639 8769
172  3655 4468
173  522  8927
174  7258 7886
175  2811 2296
176  7995 9784
177  7077 8967
178  8371 8219
179  222  2859
180  7771 8938
181  7792 7252
182  4602 3402
183  588  2090
184  6799 6109
185  8227 9710
186  963  8280
187  5902 7120
188  1139 8061
189  3892 3960
190  7967 7923
191  9131 5541
192  2246 1994
193  8232 7381
194  5632 8814
195  7780 6738
196  8202 8568
197  4936 2215
198  7781 9595
199  4139 2707
200  7504 8684
201  8052 8813
202  667  8343
203  6493 1254
204  3267 2882
205  7827 8348
206  8264 5430
207  226  2986
208  670  9232
209  8264 3762
210  569  4597
211  6982 7237
212  7291 9725
213  4872 4611
214  9456 8592
215  1684 7289
216  791  2992
217  4918 2637
218  6932 9624
219  3053 8046
220  7522 4959
221  7295 8083
222  1749 8951
223  56   3493
224  7944 4767
225  8162 5066
226  8083 8559
227  1812 7911
228  4605 2488
229  7402 9175
230  193  8193
231  7279 7194
232  381  8091
233  538  4025
234  563  8530
235  4855 2501
236  7222 8386
237  6785 7481
238  7655 9050
239  4372 2902
240  532  6306
241  3444 2593
242  167  7812
243  5756 4431
244  8766 7082
245  7221 6026
246  8464 4544
247  4634 523 
248  7266 9059
249  7668 8883
250  200  2842
251  5050 4473
252  6168 6921
253  4360 3245
254  7851 5060
255  9040 9982
256  8540 5975
257  4527 6785
258  7398 8227
259  7581 8204
260  7681 9244
261  3546 1607
262  7112 8134
263  7192 5622
264  6632 7739
265  3283 3146
266  7974 8164
267  8599 5054
268  1502 6721
269  7553 5783
270  7433 7394
271  8872 9643
272  6880 9132
273  8364 9061
274  7104 8012
275  6922 8820
276  7349 6471
277  6488 7466
278  452  3456
279  4500 2583
280  7219 3954
281  7793 7164
282  8027 5518
283  7800 6929
284  3065 2975
285  530  7621
286  7475 8849
287  9230 7032
288  8121 4812
289  7988 4576
290  4255 2929
291  9377 6821
292  1669 1625
293  199  3109
294  7597 7165
295  5197 5054
296  7035 7647
297  8059 8104
298  223  3712
299  789  8147
300  7966 9190
301  7008 4342
302  3248 2022
303  8724 4761
304  8123 5109
305  7077 7467
306  169  2517
307  365  7749
308  4546 2625
309  774  8213
310  8400 2721
311  586  9240
312  104  4125
313  2863 3111
314  5735 8703
315  541  8995
316  1194 4449
317  6701 8510
318  8115 9716
319  2029 9845
320  2959 2714
321  9037 7286
322  7022 5276
323  8312 5139
324  4748 3392
325  8753 6474
326  7201 8763
327  7813 4882
328  7599 8095
329  273  2721
330  841  9041
331  8906 8058
332  608  8681
333  9364 4868
334  4402 970 
335  3213 2390
336  2274 9392
337  5939 2066
338  181  3348
339  576  8885
340  3959 2588
341  301  3481
342  5447 5414
343  8207 9013
344  3168 2866
345  6114 7777
346  4512 3239
347  8410 8521
348  8060 4674
349  5461 8168
350  448  3216
351  7043 7059
352  2579 803 
353  6983 7665
354  4293 4316
355  7755 8595
356  1077 5561
357  7206 4553
358  638  3226
359  4080 1798
360  7702 8941
361  1960 9047
362  830  6339
363  7945 9353
364  7956 5034
365  8198 5794
366  3760 1946
367  3692 1962
368  4071 3368
369  8279 3922
370  8614 5523
371  7821 5270
372  18   4173
373  268  4340
374  53   7546
375  5033 2209
376  5220 582 
377  1188 8326
378  545  8570
379  972  8583
380  5269 1282
381  154  8009
382  2742 3123
383  7440 8896
384  7967 4952
385  8597 5546
386  524  8254
387  7495 8488
388  6003 9195
389  1389 8309
390  8444 8786
391  320  2875
392  831  3549
393  279  9663
394  6013 1875
395  952  7622
396  825  8537
397  922  3679
398  1195 4375
399  8645 8206
400  9534 3557
401  8636 9248
402  271  7086
403  3308 3299
404  1043 8725
405  6653 8592
406  897  3925
407  5798 5874
408  7522 7625
409  288  3886
410  8239 9699
411  7008 9176
412  1645 2543
413  4777 2595
414  5188 804 
415  3393 1167
416  8638 5148
417  6716 4129
418  8420 5945
419  5431 1900
420  625  3629
421  7844 6591
422  9131 8563
423  8384 9431
424  639  9057
425  4695 2823
426  7502 9969
427  7664 9637
428  8295 9402
429  8581 5127
430  1193 9091
431  9663 5007
432  156  8163
433  7692 8021
434  7738 8184
435  167  7726
436  7275 6727
437  8375 4592
438  3884 2202
439  5222 5215
440  746  7314
441  7965 9675
442  3891 1497
443  5923 9267
444  7429 9504
445  8908 9611
446  7965 9582
447  118  8436
448  8652 5442
449  7226 4181
450  7699 8466
451  4529 2985
452  6105 7507
453  574  3549
454  1380 8464
455  4890 2757
456  265  3422
457  8179 7907
458  4592 3503
459  7350 8011
460  9361 5006
461  3672 1268
462  7735 5689
463  7615 4774
464  718  3032
465  7189 7454
466  6287 7147
467  395  8663
468  4236 2571
469  8149 6091
470  478  9348
471  862  4839
472  985  4700
473  8086 9854
474  5843 1576
475  15   2491
476  7259 9594
477  5535 2429
478  712  3938
479  7963 5465
480  8134 5237
481  7390 7889
482  863  8813
483  7578 7979
484  8270 8206
485  675  7856
486  874  8791
487  7857 9082
488  7501 5438
489  428  8726
490  6818 8036
491  7196 8243
492  5581 8768
493  6050 7933
494  8327 5569
495  7830 9083
496  6087 1197
497  7776 8216
498  4424 2090
499  6820 9037
500  7929 7881
501  5659 2787
502  6200 4329
503  8818 8512
504  8271 9880
505  719  9047
506  7570 7769
507  7360 8244
508  7601 4971
509  4373 3037
510  8323 9150
511  7027 8399
512  2495 8182
513  683  8277
514  6561 8075
515  8660 5687
516  650  2917
517  8713 3798
518  7004 7830
519  7556 8795
520  5379 2676
521  8939 7264
522  5644 9272
523  3802 2533
524  4880 2816
525  4550 2135
526  7644 5088
527  5284 1944
528  67   8061
529  678  7418
530  612  8363
531  4226 730 
532  1566 4012
533  7756 9346
534  7806 5260
535  5414 7079
536  7385 9246
537  8050 6989
538  4997 2704
539  7742 9655
540  1357 2386
541  8724 8786
542  7906 9816
543  5165 3007
544  725  9550
545  8858 5423
546  773  7973
547  8277 8865
548  813  8228
549  6764 9306
550  6956 7801
551  7240 9898
552  7818 7865
553  8081 9373
554  8757 9086
555  4327 2707
556  48   4123
557  5270 3209
558  324  7268
559  6323 7862
560  6312 1104
561  7695 8432
562  3645 2949
563  7185 8772
564  8693 6419
565  1403 8494
566  256  3316
567  4673 1722
568  4766 2441
569  7007 6798
570  7898 8003
571  4174 2457
572  7646 8977
573  89   2670
574  6559 6135
575  7513 4500
576  4279 2956
577  8629 8454
578  7624 5584
579  791  9113
580  7414 4059
581  5379 3479
582  6078 1218
583  7604 7499
584  1187 7806
585  4383 2321
586  5308 2659
587  4141 2108
588  505  8783
589  8117 8235
590  7521 7712
591  7157 5874
592  8268 7797
593  6816 9088
594  7400 7788
595  8575 4932
596  524  3968
597  126  3433
598  9053 6003
599  6786 7346
600  8713 7971
601  2775 4188
602  8471 2953
603  2120 2293
604  6467 9478
605  8176 8718
606  1886 3769
607  1298 2315
608  7997 7473
609  3773 1969
610  5550 2218
611  3948 2811
612  5901 6115
613  1208 8667
614  9369 4984
615  4207 2239
616  7959 7925
617  8252 4916
618  247  4367
619  395  7509
620  4148 2884
621  901  2914
622  1442 9220
623  5839 4241
624  3958 3352
625  86   2925
626  4205 2659
627  8152 9435
628  6773 4444
629  3625 3222
630  231  9874
631  6155 6711
632  83   3746
633  9046 3655
634  3926 2056
635  4703 4697
636  7288 5665
637  7466 9347
638  3963 2403
639  525  7872
640  7837 8699
641  320  8512
642  1094 3868
643  4582 1916
644  268  2450
645  6457 5691
646  1085 9698
647  628  6345
648  3399 2192
649  7981 9779
650  5347 2640
651  7631 5326
652  1095 2536
653  7030 8672
654  7413 9240
655  457  8506
656  7913 6637
657  383  2763
658  7540 9207
659  343  3184
660  6831 7863
661  56   7730
662  5434 1562
663  8008 4407
664  9263 8451
665  9110 7833
666  6531 5675
667  8427 5347
668  5187 2539
669  982  3726
670  191  5499
671  8204 5104
672  330  8448
673  1030 8753
674  9074 7966
675  4714 3197
676  4827 3007
677  194  8720
678  4866 3229
679  7804 2340
680  836  9203
681  8497 7399
682  7906 9471
683  7311 7754
684  6633 9756
685  8452 7546
686  7558 9913
687  713  3165
688  675  8850
689  4706 2092
690  639  9976
691  8115 9325
692  783  9038
693  2874 7526
694  7916 6710
695  4147 3486
696  342  6910
697  3711 2081
698  6447 8859
699  9287 5923
700  32   3099
701  2914 3293
702  4716 2830
703  825  8676
704  5183 3442
705  9442 8146
706  5984 2938
707  6004 8925
708  1093 2830
709  572  7599
710  8457 5771
711  6288 8942
712  510  4164
713  3911 1725
714  6811 9244
715  8992 4099
716  7670 7925
717  7978 8930
718  8978 5389
719  6539 7556
720  3319 6591
721  6865 5533
722  7368 9547
723  6590 680 
724  190  2635
725  4811 2145
726  7655 9546
727  8691 6381
728  536  1333
729  7232 7522
730  8364 8707
731  446  4013
732  1703 7860
733  4821 1454
734  5478 1957
735  8363 4913
736  7134 4730
737  8367 8546
738  3907 2733
739  4104 3468
740  726  2673
741  1080 3034
742  3404 3608
743  5462 3666
744  316  8891
745  8013 9896
746  7823 8516
747  8367 5737
748  7499 8238
749  6417 9197
750  1803 3334
751  8596 8464
752  436  4077
753  1583 4248
754  7932 7889
755  7624 5740
756  1571 3808
757  8793 8248
758  6508 8019
759  8452 6171
760  656  8758
761  2705 4213
762  300  3409
763  7338 7226
764  8251 5445
765  425  8135
766  5136 3466
767  1151 7090
768  6702 5790
769  7129 4261
770  7612 6211
771  5086 7094
772  8088 9358
773  7308 3903
774  545  8298
775  8178 5576
776  28   4057
777  7844 9278
778  2357 3192
779  5585 1583
780  714  8357
781  6959 6744
782  7761 8169
783  7685 8112
784  802  5170
785  5461 2171
786  354  7988
787  7732 6759
788  5504 2768
789  1346 7958
790  8180 6406
791  2628 4236
792  7014 4012
793  509  7002
794  4581 3165
795  8592 9714
796  4423 1225
797  402  3243
798  8859 9847
799  164  8330
800  8216 9640
801  3542 4791
802  9071 8812
803  8693 5819
804  7400 7916
805  8191 9363
806  7462 3420
807  4648 7596
808  4214 3151
809  4062 3560
810  434  3352
811  3941 3252
812  7833 9295
813  820  3887
814  306  7531
815  5395 2539
816  7877 9507
817  7328 7990
818  8365 5783
819  7768 8434
820  4795 3918
821  8216 8763
822  8284 8636
823  368  3528
824  2730 627 
825  8431 4864
826  8070 9727
827  395  2946
828  4911 2325
829  4509 2711
830  5477 9691
831  6161 5754
832  7624 9083
833  5392 2131
834  7537 7429
835  5328 2608
836  1260 9307
837  8725 4803
838  6972 8328
839  5198 5946
840  8017 7917
841  8441 3784
842  6952 8292
843  8095 8252
844  6560 7030
845  3976 1177
846  7074 8211
847  6810 7924
848  18   6991
849  7194 8535
850  7365 8370
851  4500 3104
852  180  2919
853  996  8812
854  7979 8961
855  7555 6547
856  8015 6291
857  8535 6331
858  4541 2852
859  8633 6184
860  3386 1593
861  7163 7990
862  690  5281
863  252  6827
864  9705 9141
865  8733 5855
866  4852 4289
867  9386 9017
868  8061 8566
869  2949 3033
870  1640 7827
871  4677 3066
872  4142 2703
873  997  7926
874  849  8026
875  7703 9030
876  9353 5395
877  8611 6116
878  5659 2691
879  91   3139
880  7876 4576
881  8301 9206
882  5148 4199
883  9056 4033
884  7560 6572
885  488  9420
886  7553 8207
887  6980 9069
888  111  4491
889  8286 5809
890  8232 9224
891  7488 9552
892  4283 2846
893  8347 7113
894  8029 5370
895  502  3722
896  4824 3902
897  645  8138
898  4451 2090
899  6692 7727
900  2020 8228
901  5109 2462
902  7532 8773
903  4401 3682
904  231  4101
905  9647 6507
906  8060 5103
907  5174 1542
908  5584 3220
909  152  3958
910  8199 9398
911  8528 8077
912  6833 4145
913  8359 4462
914  955  9018
915  4769 3002
916  8715 5951
917  9325 4079
918  6992 9943
919  8813 8731
920  7724 8787
921  7736 9230
922  7367 9956
923  7954 8838
924  8635 7006
925  8981 6795
926  6924 9629
927  8648 8550
928  5618 3381
929  531  8461
930  8491 9936
931  5784 3997
932  7956 6582
933  1548 1787
934  6612 7551
935  6297 5863
936  4887 2996
937  7726 8097
938  4269 1246
939  4553 1944
940  7694 5335
941  8021 9107
942  9236 4663
943  85   3650
944  7683 5387
945  1701 8665
946  9270 7593
947  5346 1846
948  39   3493
949  4932 7766
950  132  2403
951  4246 3805
952  130  8559
953  7912 7975
954  7668 5327
955  6814 5906
956  4654 2647
957  7609 5451
958  1394 9699
959  243  3376
960  8514 8575
961  1066 8454
962  4445 2421
963  163  8703
964  8869 5556
965  7769 8384
966  4346 3102
967  420  3319
968  8182 7453
969  703  8259
970  1418 7971
971  5143 3039
972  7858 9954
973  8485 9228
974  7675 5209
975  4011 3836
976  7880 9716
977  8052 5053
978  8322 6176
979  9038 6177
980  279  8885
981  699  4017
982  8307 5315
983  358  8665
984  9461 8330
985  4395 3151
986  8433 6075
987  4486 2532
988  173  3074
989  3978 2539
990  8278 5846
991  294  3851
992  3696 2472
993  9423 4181
994  4516 3675
995  7315 3512
996  7689 7082
997  407  2261
998  4598 4043
999  1142 4032
1000 1134 9181
1001 6429 9403
DEMAND_SECTION
1    0   
2    4   
3    5   
4    10  
5    7   
6    5   
7    6   
8    6   
9    10  
10   9   
11   8   
12   4   
13   10  
14   1   
15   3   
16   2   
17   7   
18   9   
19   2   
20   8   
21   7   
22   7   
23   3   
24   10  
25   9   
26   9   
27   7   
28   10  
29   8   
30   9   
31   9   
32   6   
33   7   
34   6   
35   2   
36   8   
37   10  
38   2   
39   5   
40   5   
41   5   
42   3   
43   4   
44   3   
45   9   
46   10  
47   2   
48   10  
49   6   
50   3   
51   3   
52   2   
53   1   
54   3   
55   7   
56   1   
57   2   
58   9   
59   5   
60   10  
61   4   
62   7   
63   8   
64   10  
65   2   
66   3   
67   1   
68   5   
69   8   
70   9   
71   5   
72   10  
73   7   
74   8   
75   7   
76   5   
77   3   
78   5   
79   5   
80   3   
81   1   
82   7   
83   4   
84   9   
85   9   
86   9   
87   2   
88   1   
89   7   
90   5   
91   8   
92   8   
93   3   
94   7   
95   5   
96   3   
97   2   
98   7   
99   8   
100  1   
101  7   
102  1   
103  10  
104  2   
105  9   
106  2   
107  7   
108  5   
109  7   
110  10  
111  2   
112  3   
113  7   
114  4   
115  6   
116  4   
117  9   
118  4   
119  4   
120  4   
121  8   
122  2   
123  4   
124  4   
125  5   
126  5   
127  8   
128  7   
129  1   
130  6   
131  4   
132  6   
133  1   
134  8   
135  5   
136  9   
137  1   
138  8   
139  6   
140  5   
141  2   
142  8   
143  6   
144  9   
145  2   
146  1   
147  3   
148  5   
149  3   
150  6   
151  7   
152  3   
153  10  
154  3   
155  10  
156  9   
157  9   
158  4   
159  10  
160  2   
161  8   
162  8   
163  1   
164  7   
165  1   
166  8   
167  1   
168  4   
169  8   
170  4   
171  1   
172  3   
173  4   
174  8   
175  2   
176  3   
177  1   
178  8   
179  2   
180  7   
181  10  
182  9   
183  3   
184  3   
185  1   
186  3   
187  6   
188  2   
189  5   
190  6   
191  4   
192  10  
193  3   
194  10  
195  1   
196  1   
197  6   
198  6   
199  7   
200  7   
201  7   
202  5   
203  6   
204  8   
205  1   
206  9   
207  10  
208  7   
209  4   
210  10  
211  8   
212  1   
213  1   
214  8   
215  1   
216  10  
217  7   
218  9   
219  2   
220  10  
221  9   
222  10  
223  10  
224  6   
225  2   
226  7   
227  5   
228  7   
229  9   
230  4   
231  5   
232  7   
233  6   
234  2   
235  4   
236  9   
237  10  
238  1   
239  3   
240  9   
241  9   
242  5   
243  6   
244  2   
245  1   
246  8   
247  8   
248  8   
249  4   
250  8   
251  5   
252  2   
253  4   
254  9   
255  2   
256  10  
257  3   
258  3   
259  4   
260  9   
261  5   
262  3   
263  5   
264  3   
265  9   
266  9   
267  3   
268  5   
269  2   
270  4   
271  4   
272  6   
273  9   
274  3   
275  5   
276  10  
277  6   
278  2   
279  3   
280  8   
281  6   
282  10  
283  1   
284  9   
285  4   
286  7   
287  2   
288  4   
289  2   
290  8   
291  2   
292  6   
293  1   
294  4   
295  5   
296  1   
297  3   
298  5   
299  4   
300  8   
301  9   
302  7   
303  9   
304  3   
305  3   
306  3   
307  4   
308  6   
309  9   
310  9   
311  2   
312  4   
313  7   
314  1   
315  9   
316  9   
317  2   
318  5   
319  4   
320  1   
321  10  
322  8   
323  2   
324  9   
325  4   
326  6   
327  3   
328  3   
329  10  
330  5   
331  1   
332  5   
333  6   
334  1   
335  7   
336  7   
337  2   
338  6   
339  1   
340  8   
341  6   
342  1   
343  2   
344  6   
345  4   
346  5   
347  7   
348  5   
349  8   
350  4   
351  4   
352  1   
353  4   
354  7   
355  8   
356  2   
357  5   
358  6   
359  7   
360  5   
361  8   
362  5   
363  7   
364  6   
365  2   
366  9   
367  3   
368  9   
369  5   
370  2   
371  8   
372  4   
373  9   
374  1   
375  4   
376  1   
377  10  
378  2   
379  2   
380  7   
381  5   
382  10  
383  5   
384  3   
385  4   
386  1   
387  9   
388  7   
389  10  
390  10  
391  9   
392  8   
393  2   
394  9   
395  2   
396  9   
397  1   
398  1   
399  8   
400  9   
401  5   
402  3   
403  5   
404  4   
405  3   
406  4   
407  7   
408  1   
409  7   
410  9   
411  7   
412  10  
413  3   
414  9   
415  10  
416  1   
417  6   
418  8   
419  7   
420  10  
421  8   
422  1   
423  6   
424  5   
425  6   
426  7   
427  5   
428  4   
429  8   
430  8   
431  10  
432  8   
433  10  
434  1   
435  7   
436  7   
437  8   
438  8   
439  1   
440  9   
441  6   
442  9   
443  9   
444  1   
445  1   
446  1   
447  7   
448  4   
449  8   
450  5   
451  2   
452  10  
453  8   
454  8   
455  5   
456  6   
457  7   
458  1   
459  4   
460  5   
461  1   
462  1   
463  10  
464  4   
465  5   
466  4   
467  4   
468  10  
469  4   
470  2   
471  9   
472  5   
473  4   
474  2   
475  4   
476  4   
477  1   
478  2   
479  6   
480  7   
481  7   
482  6   
483  9   
484  1   
485  9   
486  2   
487  2   
488  8   
489  9   
490  9   
491  1   
492  5   
493  10  
494  1   
495  5   
496  5   
497  6   
498  5   
499  9   
500  4   
501  5   
502  9   
503  7   
504  9   
505  8   
506  6   
507  8   
508  7   
509  2   
510  1   
511  3   
512  3   
513  8   
514  3   
515  7   
516  1   
517  9   
518  4   
519  3   
520  8   
521  3   
522  7   
523  5   
524  7   
525  6   
526  10  
527  4   
528  3   
529  2   
530  3   
531  10  
532  1   
533  6   
534  1   
535  5   
536  1   
537  3   
538  6   
539  5   
540  4   
541  8   
542  7   
543  5   
544  4   
545  10  
546  7   
547  4   
548  2   
549  2   
550  4   
551  1   
552  5   
553  7   
554  4   
555  9   
556  3   
557  1   
558  10  
559  5   
560  7   
561  10  
562  6   
563  7   
564  3   
565  6   
566  3   
567  7   
568  4   
569  2   
570  2   
571  2   
572  4   
573  1   
574  5   
575  3   
576  7   
577  5   
578  8   
579  2   
580  1   
581  4   
582  1   
583  3   
584  8   
585  1   
586  6   
587  8   
588  6   
589  9   
590  5   
591  7   
592  6   
593  6   
594  5   
595  2   
596  9   
597  4   
598  1   
599  1   
600  8   
601  9   
602  3   
603  7   
604  6   
605  9   
606  4   
607  5   
608  10  
609  1   
610  4   
611  3   
612  2   
613  4   
614  4   
615  6   
616  2   
617  4   
618  4   
619  10  
620  7   
621  1   
622  2   
623  10  
624  9   
625  6   
626  8   
627  7   
628  1   
629  7   
630  5   
631  4   
632  4   
633  5   
634  7   
635  3   
636  2   
637  4   
638  4   
639  3   
640  4   
641  2   
642  2   
643  8   
644  3   
645  2   
646  5   
647  9   
648  2   
649  10  
650  6   
651  6   
652  2   
653  4   
654  1   
655  1   
656  4   
657  8   
658  4   
659  8   
660  10  
661  3   
662  4   
663  7   
664  6   
665  1   
666  8   
667  1   
668  10  
669  10  
670  4   
671  3   
672  2   
673  10  
674  10  
675  5   
676  7   
677  3   
678  5   
679  7   
680  9   
681  10  
682  6   
683  10  
684  7   
685  1   
686  3   
687  1   
688  9   
689  2   
690  7   
691  3   
692  7   
693  10  
694  10  
695  7   
696  8   
697  6   
698  3   
699  8   
700  9   
701  9   
702  10  
703  1   
704  5   
705  3   
706  7   
707  7   
708  6   
709  4   
710  7   
711  1   
712  4   
713  7   
714  2   
715  4   
716  8   
717  3   
718  5   
719  3   
720  5   
721  5   
722  4   
723  9   
724  3   
725  8   
726  5   
727  8   
728  5   
729  8   
730  5   
731  4   
732  5   
733  8   
734  5   
735  1   
736  4   
737  8   
738  3   
739  4   
740  1   
741  6   
742  6   
743  6   
744  4   
745  9   
746  10  
747  1   
748  6   
749  10  
750  2   
751  9   
752  4   
753  1   
754  5   
755  10  
756  7   
757  3   
758  6   
759  5   
760  10  
761  3   
762  9   
763  4   
764  9   
765  3   
766  8   
767  5   
768  2   
769  10  
770  9   
771  1   
772  2   
773  6   
774  3   
775  7   
776  7   
777  4   
778  6   
779  4   
780  3   
781  8   
782  2   
783  4   
784  9   
785  6   
786  8   
787  1   
788  6   
789  10  
790  7   
791  10  
792  4   
793  8   
794  3   
795  9   
796  7   
797  9   
798  1   
799  10  
800  9   
801  1   
802  4   
803  9   
804  6   
805  2   
806  4   
807  2   
808  3   
809  5   
810  3   
811  9   
812  1   
813  10  
814  2   
815  1   
816  8   
817  8   
818  10  
819  6   
820  10  
821  4   
822  5   
823  5   
824  7   
825  3   
826  9   
827  6   
828  3   
829  4   
830  2   
831  5   
832  6   
833  2   
834  2   
835  3   
836  9   
837  2   
838  6   
839  9   
840  2   
841  4   
842  1   
843  4   
844  1   
845  10  
846  8   
847  3   
848  2   
849  6   
850  2   
851  9   
852  9   
853  9   
854  1   
855  8   
856  10  
857  5   
858  9   
859  8   
860  1   
861  2   
862  8   
863  7   
864  9   
865  4   
866  9   
867  3   
868  1   
869  4   
870  9   
871  10  
872  1   
873  2   
874  5   
875  10  
876  7   
877  10  
878  7   
879  7   
880  1   
881  8   
882  1   
883  1   
884  2   
885  7   
886  8   
887  1   
888  2   
889  7   
890  1   
891  8   
892  4   
893  8   
894  2   
895  5   
896  4   
897  10  
898  3   
899  8   
900  10  
901  1   
902  10  
903  3   
904  9   
905  2   
906  3   
907  10  
908  6   
909  6   
910  10  
911  5   
912  4   
913  4   
914  10  
915  7   
916  5   
917  10  
918  9   
919  3   
920  10  
921  4   
922  10  
923  7   
924  6   
925  5   
926  6   
927  5   
928  8   
929  7   
930  3   
931  9   
932  2   
933  4   
934  10  
935  8   
936  6   
937  5   
938  3   
939  3   
940  5   
941  1   
942  1   
943  6   
944  9   
945  6   
946  3   
947  8   
948  5   
949  6   
950  5   
951  8   
952  7   
953  7   
954  7   
955  9   
956  7   
957  9   
958  5   
959  10  
960  6   
961  6   
962  8   
963  1   
964  3   
965  10  
966  9   
967  10  
968  5   
969  8   
970  5   
971  6   
972  1   
973  7   
974  1   
975  5   
976  9   
977  5   
978  9   
979  4   
980  1   
981  7   
982  9   
983  5   
984  3   
985  5   
986  1   
987  8   
988  5   
989  10  
990  7   
991  3   
992  2   
993  8   
994  3   
995  9   
996  10  
997  1   
998  2   
999  7   
1000 4   
1001 6   
DEPOT_SECTION
1
-1
EOF
