NAME : XML5000_1173_01
COMMENT : Generated as the XML100 dataset from the CVRPLIB
TYPE : CVRP
DIMENSION : 5001
EDGE_WEIGHT_TYPE : EUC_2D
CAPACITY : 151
NODE_COORD_SECTION
1    7906 9471
2    6888 3641
3    2375 8590
4    7093 6671
5    6660 4649
6    8660 1113
7    8816 6953
8    8535 6780
9    3629 5178
10   5625 5036
11   6403 7262
12   820  2109
13   2436 4279
14   7089 2659
15   7811 1564
16   4182 5031
17   8443 8169
18   4513 1729
19   4990 9773
20   8347 7965
21   8824 553 
22   4102 4388
23   9880 5257
24   7401 1723
25   6193 3155
26   6663 2337
27   3954 5572
28   7131 9203
29   280  2095
30   8128 593 
31   4400 3745
32   3192 4835
33   6989 8764
34   758  9138
35   2151 1393
36   361  9125
37   3737 3125
38   8387 8231
39   9055 6848
40   8724 8174
41   8857 5961
42   3273 9824
43   2548 8268
44   8020 1305
45   3125 8565
46   2792 1250
47   2682 9684
48   2410 6833
49   2980 4476
50   3632 3843
51   7925 820 
52   7943 4984
53   7443 6651
54   5396 6078
55   8711 5465
56   9620 7901
57   6305 1285
58   8373 8740
59   9664 3088
60   8033 9106
61   2260 1958
62   6341 3872
63   5342 2122
64   4930 4079
65   6781 4750
66   3368 357 
67   7234 1892
68   2562 3674
69   8099 312 
70   6182 5619
71   453  901 
72   9723 5358
73   7627 8837
74   5053 6440
75   2724 8018
76   1403 9138
77   535  2365
78   2111 83  
79   5979 5043
80   999  1490
81   5440 8876
82   3364 603 
83   9544 9226
84   4868 3415
85   8225 147 
86   6556 512 
87   7075 8752
88   6815 7385
89   1605 3644
90   2259 9537
91   2899 9387
92   6542 2045
93   8935 9161
94   9150 7532
95   5609 6753
96   9479 4783
97   2102 7866
98   847  9055
99   6878 840 
100  7984 1506
101  170  431 
102  7234 9046
103  8471 8821
104  59   7275
105  4604 6171
106  1949 2362
107  8321 9889
108  3436 3510
109  9182 2657
110  4771 4951
111  1635 9386
112  2819 9793
113  3229 6303
114  9991 7399
115  4259 3188
116  4056 1700
117  7971 9121
118  9554 592 
119  2573 2353
120  8575 8571
121  7075 3228
122  6248 5373
123  165  3040
124  2478 7989
125  4053 4369
126  1534 103 
127  5035 9747
128  5339 7900
129  7014 8879
130  794  5103
131  9833 9869
132  1215 2726
133  4223 8051
134  2622 3316
135  4652 9061
136  3392 998 
137  7163 7716
138  8778 7732
139  698  1553
140  8234 2132
141  7300 4021
142  5656 8545
143  3574 3036
144  1438 1243
145  8455 2176
146  7350 8141
147  3649 7034
148  1607 2182
149  993  1297
150  4648 8052
151  2584 9517
152  6716 5569
153  2517 3888
154  3746 6178
155  2331 4616
156  8983 786 
157  7764 667 
158  2847 8198
159  9827 3660
160  5714 4965
161  810  5926
162  3637 1826
163  9143 8599
164  7765 2472
165  3961 7015
166  302  4187
167  1338 278 
168  1091 8242
169  473  3547
170  5747 1612
171  5497 2849
172  6584 1027
173  4252 4762
174  776  5872
175  1163 4409
176  2121 8819
177  855  1863
178  8114 5453
179  7005 9651
180  3292 9500
181  6841 5191
182  4304 8508
183  8028 7234
184  7178 3637
185  8988 3560
186  1637 9434
187  5475 5695
188  7550 7135
189  246  4274
190  5455 6323
191  8453 7927
192  2286 4023
193  2335 8543
194  2535 706 
195  6785 7906
196  8381 4455
197  5764 5916
198  5088 5274
199  5602 4425
200  4217 8703
201  9054 8437
202  1684 4547
203  5060 2662
204  7306 7622
205  1082 6102
206  3412 9241
207  209  1314
208  208  6080
209  662  7591
210  3226 132 
211  6920 5468
212  4946 7410
213  878  1204
214  2697 3206
215  8624 5543
216  8865 6708
217  4390 360 
218  45   3683
219  4351 4197
220  5505 3867
221  6667 7811
222  3134 5149
223  1246 4095
224  9718 8157
225  5066 2688
226  7799 4859
227  899  7591
228  3224 6293
229  6264 8020
230  6935 5380
231  9379 7663
232  9418 4837
233  4090 9743
234  1972 7609
235  9032 5709
236  7414 7638
237  729  3218
238  1145 4184
239  779  5850
240  1443 7977
241  5750 1352
242  7151 8210
243  9010 6162
244  2238 9541
245  49   9901
246  1511 9661
247  9943 5267
248  1163 5319
249  1016 8869
250  6421 1544
251  9640 787 
252  700  6484
253  1851 6923
254  7742 9573
255  9412 2453
256  8765 975 
257  8198 1338
258  7886 4406
259  7021 4993
260  9725 49  
261  7827 8348
262  6629 7824
263  1831 6625
264  3846 6086
265  3036 7351
266  7231 1616
267  6077 6901
268  1213 4000
269  2538 6937
270  802  3638
271  8599 2016
272  7844 438 
273  5516 6411
274  7054 6382
275  3692 6269
276  4195 592 
277  5868 1694
278  1021 67  
279  5546 2170
280  7625 1177
281  2515 5654
282  1923 7844
283  7993 5354
284  5347 5722
285  2797 4330
286  6277 1930
287  7814 5384
288  7787 1061
289  6925 2371
290  9992 6678
291  8880 2979
292  6685 9695
293  3722 9958
294  2831 5866
295  4931 927 
296  7125 5407
297  4904 9095
298  2641 4300
299  4029 2926
300  4132 8693
301  6783 6869
302  9915 1814
303  3090 4714
304  1446 5959
305  1962 3344
306  3444 2593
307  2509 1959
308  8576 9797
309  4103 656 
310  863  9368
311  3382 6566
312  7128 9037
313  4811 7407
314  266  6973
315  9596 9049
316  9174 3125
317  1982 5741
318  3241 3949
319  6013 9692
320  5368 2760
321  2946 8486
322  9127 9530
323  1600 6035
324  7247 8341
325  9710 5810
326  3528 8522
327  9656 5402
328  5973 2307
329  4894 5238
330  1895 6361
331  577  8881
332  367  9205
333  1878 4423
334  7121 2188
335  2305 455 
336  4708 6773
337  2049 6794
338  190  6264
339  7538 2698
340  6926 5073
341  3277 8898
342  5136 6207
343  7524 2792
344  617  3496
345  6880 9132
346  4909 5361
347  192  7440
348  1712 5301
349  2193 2070
350  3846 1368
351  7082 283 
352  2919 7664
353  3853 6889
354  2965 9841
355  1016 3168
356  2138 5804
357  4537 7837
358  454  3719
359  811  9502
360  7800 6929
361  4873 2645
362  3218 5902
363  7939 6827
364  2115 4040
365  5293 5585
366  2135 9307
367  6271 7392
368  9144 5237
369  3400 5391
370  8756 3504
371  3431 6932
372  5308 9337
373  9456 1062
374  8411 9089
375  5375 6891
376  6891 1259
377  8523 9023
378  8494 6482
379  2584 3866
380  5293 539 
381  651  9277
382  6944 9990
383  586  9240
384  3241 4029
385  6628 7235
386  5290 5050
387  4515 5917
388  5193 8805
389  1728 9513
390  2399 9849
391  5046 8149
392  5769 954 
393  5307 6999
394  755  4210
395  1957 287 
396  1564 8829
397  3653 2349
398  7742 2987
399  4707 5823
400  3911 6174
401  9351 5541
402  1012 7462
403  5308 1998
404  4187 1963
405  255  5591
406  3928 7734
407  8337 8176
408  2163 545 
409  2618 6534
410  857  7561
411  2026 3574
412  9030 7342
413  2544 7630
414  2647 1203
415  5161 8576
416  3953 9746
417  2265 5859
418  595  7315
419  4329 186 
420  7635 1328
421  9186 5982
422  2742 2095
423  4512 3239
424  4141 8976
425  8410 8521
426  3688 6313
427  6938 7333
428  4078 149 
429  3965 2200
430  3291 7400
431  9348 3960
432  8548 3742
433  7580 2712
434  3227 8320
435  7937 6678
436  5165 7651
437  2844 752 
438  297  885 
439  1859 9133
440  8541 6687
441  7360 6631
442  9422 5741
443  3018 18  
444  71   8229
445  9074 233 
446  7415 5697
447  3112 5596
448  7267 3133
449  6949 9500
450  9722 262 
451  8242 5982
452  53   7546
453  5033 2209
454  5246 9045
455  2012 6032
456  9322 3471
457  9351 859 
458  8533 7516
459  5210 1405
460  5269 1282
461  7522 3624
462  154  8009
463  9447 7609
464  8357 5721
465  1712 7129
466  9472 2025
467  5404 8076
468  8028 4786
469  1486 2684
470  5669 4127
471  792  7133
472  7812 5052
473  300  1435
474  5285 7856
475  1997 9539
476  9466 5110
477  8707 9461
478  3033 6413
479  2237 3489
480  2716 2612
481  3144 9693
482  4213 4138
483  601  9236
484  8636 9248
485  4437 7398
486  2264 9270
487  1226 8477
488  6861 8391
489  9442 7396
490  3308 3299
491  813  3371
492  3008 9441
493  992  950 
494  679  878 
495  7427 8783
496  5130 5151
497  546  6537
498  7201 6391
499  7536 3359
500  5197 7929
501  4363 6719
502  4773 6924
503  288  3886
504  465  2753
505  8571 8755
506  2563 971 
507  5222 7223
508  6423 4865
509  5431 1900
510  625  3629
511  7537 5488
512  3741 5727
513  3737 8617
514  5049 1404
515  9328 8364
516  1834 1218
517  8384 9431
518  8191 2730
519  1850 6836
520  726  5078
521  9007 7456
522  7352 3749
523  351  9168
524  2393 9127
525  9293 2150
526  8066 5888
527  8256 2443
528  1998 8751
529  5252 4099
530  7548 7072
531  5722 8977
532  8940 4438
533  2171 9402
534  4335 8621
535  6152 8333
536  1371 443 
537  8977 8327
538  8921 6213
539  8799 1107
540  6570 5613
541  8121 7576
542  746  7314
543  3189 4547
544  6094 763 
545  2006 841 
546  7356 6196
547  7317 5418
548  6125 5480
549  6841 2134
550  8343 3672
551  2667 2758
552  4720 2481
553  2209 7573
554  4586 1640
555  6255 9494
556  6764 3905
557  5202 6787
558  3030 184 
559  6205 9619
560  2904 1139
561  9920 5934
562  4825 6596
563  4114 3483
564  2201 6969
565  4248 815 
566  4141 7600
567  1000 5620
568  8931 2152
569  2961 2676
570  345  6925
571  8794 4395
572  4008 4148
573  9452 6539
574  6897 9452
575  6067 4301
576  6887 2507
577  5361 1772
578  5660 8314
579  9880 3541
580  1284 5633
581  1226 8777
582  7160 426 
583  9099 2768
584  6794 2335
585  7615 4774
586  7694 4490
587  2340 6153
588  598  5986
589  1813 4352
590  7381 6369
591  6363 9999
592  1668 8890
593  1440 4703
594  6129 3415
595  1106 9151
596  4123 4246
597  8651 8007
598  9286 2098
599  1197 7607
600  7922 7532
601  9020 4977
602  4769 9751
603  9074 9999
604  9905 8925
605  6206 8162
606  6001 8427
607  3405 8047
608  6286 6028
609  1040 9312
610  6005 3147
611  118  3644
612  66   5221
613  3831 6694
614  9651 4244
615  9422 9495
616  8646 2725
617  6905 1899
618  8676 19  
619  2768 2180
620  2542 7385
621  4533 6088
622  6354 8026
623  9628 4035
624  6660 9783
625  2859 2298
626  8775 5407
627  5922 4588
628  2450 5734
629  2391 972 
630  386  7256
631  7439 2067
632  3190 8981
633  3914 1259
634  9007 8771
635  4316 28  
636  5459 3300
637  9249 5905
638  5127 3833
639  9666 4311
640  5623 9027
641  4808 2803
642  8653 2578
643  7061 2309
644  9181 9112
645  2282 7514
646  8194 2360
647  7503 7461
648  6088 4432
649  2012 8371
650  7251 5439
651  9220 9116
652  4930 7603
653  9553 1724
654  5062 2763
655  2125 2553
656  982  4433
657  5638 8639
658  1280 5778
659  2813 1281
660  4503 5187
661  9085 887 
662  4594 444 
663  5581 4691
664  5284 1944
665  1192 7942
666  3093 4524
667  2579 6080
668  4482 4859
669  7002 9194
670  612  8363
671  3446 8358
672  5414 7079
673  3081 8322
674  799  2355
675  8072 2475
676  566  7770
677  6043 4595
678  1725 6848
679  8757 4899
680  8424 7433
681  2944 6603
682  1794 1452
683  3115 626 
684  3262 82  
685  5653 6919
686  8586 6857
687  9058 3482
688  4170 7556
689  9368 4327
690  7470 8830
691  8550 2923
692  8277 8865
693  2956 7968
694  4249 2949
695  3227 1516
696  7240 9898
697  7079 5592
698  9739 6646
699  9665 7280
700  923  3462
701  3790 5985
702  48   4123
703  2250 6894
704  6933 1125
705  162  5273
706  6563 5109
707  1111 8012
708  1877 1990
709  1751 6566
710  6312 1104
711  4405 1778
712  5806 9833
713  3243 3251
714  7326 4864
715  1502 1344
716  6543 825 
717  6584 1297
718  9602 6281
719  4766 2441
720  666  9302
721  9869 1391
722  4795 752 
723  4477 2529
724  7446 4196
725  6058 3444
726  9081 5346
727  3502 596 
728  2526 8996
729  7624 5584
730  1161 2918
731  7587 3707
732  9700 1441
733  8664 4415
734  5129 9946
735  7598 1611
736  6013 4496
737  470  438 
738  6645 7671
739  1685 8130
740  7022 9197
741  1257 1756
742  7143 4729
743  9364 2954
744  9728 7974
745  5560 6392
746  326  5656
747  1762 9369
748  5723 1445
749  5451 5845
750  3891 6922
751  483  5614
752  4163 8462
753  1180 8261
754  922  9656
755  9814 9561
756  8028 3614
757  1235 8016
758  2279 2267
759  8575 4932
760  4450 1333
761  1027 1399
762  3141 9331
763  1508 6965
764  2777 9832
765  4371 3764
766  5090 1434
767  7143 7700
768  878  9578
769  9903 1005
770  5841 1833
771  2403 214 
772  643  4045
773  392  7649
774  2836 5493
775  8961 2668
776  5456 40  
777  2040 2300
778  2946 2772
779  1135 3263
780  9591 9873
781  2280 7723
782  5368 1232
783  1425 5462
784  2698 1531
785  3032 5932
786  971  2648
787  9242 2599
788  9927 1227
789  9596 7340
790  5374 8926
791  2426 9458
792  7593 7834
793  2480 3344
794  6668 9748
795  7347 9875
796  6934 3757
797  4280 3058
798  6310 1710
799  6526 8503
800  1022 4936
801  4787 2094
802  2055 1586
803  6270 5611
804  1316 3319
805  9046 3655
806  3238 2221
807  8838 5142
808  2467 8154
809  8298 8182
810  8462 6818
811  9513 9144
812  6837 4019
813  4721 7570
814  4422 7411
815  7148 5263
816  1992 8227
817  7775 4358
818  5127 9071
819  2588 8080
820  1094 3868
821  305  6238
822  1181 2474
823  3229 426 
824  8215 3912
825  690  7696
826  4224 7787
827  1587 1945
828  9743 6185
829  8744 5681
830  6894 7988
831  8595 7744
832  1901 2463
833  5179 4124
834  2108 819 
835  1622 2293
836  457  8506
837  1124 317 
838  3787 2020
839  7382 7032
840  9234 6476
841  2633 8386
842  141  4057
843  5493 8988
844  2072 5136
845  8065 2331
846  745  2409
847  5534 7990
848  8998 7203
849  9750 6564
850  2129 2005
851  191  5499
852  5186 5199
853  827  2463
854  8564 1041
855  7843 8891
856  4866 3229
857  4525 9879
858  7177 3585
859  3239 4257
860  6405 7084
861  3513 6662
862  6125 5542
863  2640 9846
864  6325 4831
865  6875 6532
866  4817 8515
867  5021 9336
868  4573 6840
869  5516 1386
870  4269 9428
871  1098 7734
872  6282 6019
873  6267 6907
874  6794 3249
875  5889 6455
876  4504 1095
877  4295 4347
878  6292 3455
879  443  3250
880  5953 5582
881  4692 7487
882  3360 9457
883  6497 1939
884  9886 7167
885  4314 1873
886  8885 843 
887  2685 5614
888  5169 442 
889  2564 1749
890  7612 2776
891  6308 9181
892  2200 3859
893  1406 7457
894  5236 9496
895  4699 7896
896  1188 8805
897  9275 2607
898  1065 1571
899  1310 5865
900  2496 3276
901  5646 8108
902  7695 4646
903  1686 4850
904  704  1605
905  3108 8758
906  4449 9281
907  1790 5229
908  1075 3570
909  8694 5241
910  8145 28  
911  9091 3990
912  929  5466
913  4197 2379
914  1108 8355
915  3989 9757
916  5754 585 
917  388  5744
918  7259 1808
919  2104 8494
920  1074 3155
921  3456 6270
922  2254 2210
923  9748 9819
924  9540 9533
925  9358 9564
926  3579 5396
927  8942 8991
928  975  4855
929  7038 1518
930  8318 7331
931  4049 4459
932  2623 2554
933  7420 6056
934  331  6272
935  8539 5799
936  1620 3819
937  9842 1607
938  1203 9135
939  9578 1102
940  6103 9690
941  8844 3421
942  2567 8918
943  7372 9916
944  4882 3051
945  5904 6450
946  3517 4945
947  3888 4683
948  7771 1633
949  5801 6651
950  8878 2515
951  4689 9600
952  7240 9312
953  6614 1583
954  6604 5305
955  5605 7346
956  7991 6562
957  5094 803 
958  8485 9485
959  4650 8085
960  5164 8036
961  2885 7866
962  2836 2886
963  6524 2708
964  7371 4974
965  6957 9864
966  6921 946 
967  2969 5429
968  966  1786
969  5278 9330
970  4261 5315
971  2472 441 
972  4791 5662
973  4191 7174
974  8074 1995
975  5496 7987
976  4364 1504
977  3392 4372
978  3129 8997
979  9744 7848
980  8385 814 
981  979  2926
982  6692 6256
983  150  4691
984  1374 8427
985  5504 2768
986  9412 1269
987  2676 5349
988  3678 1587
989  7999 7029
990  1873 1746
991  5371 8858
992  3533 9431
993  2206 4623
994  2792 2583
995  2605 355 
996  6227 7248
997  3797 5436
998  1388 6668
999  8975 4544
1000 4755 27  
1001 9561 6616
1002 5568 3910
1003 3904 4038
1004 234  8564
1005 7833 9295
1006 8157 8323
1007 6339 1255
1008 5855 3491
1009 4655 1235
1010 5149 7663
1011 3954 5119
1012 2172 773 
1013 1341 5074
1014 8893 4381
1015 6517 411 
1016 6317 1241
1017 5835 8284
1018 1210 6908
1019 7981 102 
1020 1937 7413
1021 9800 595 
1022 4737 488 
1023 4088 4675
1024 5642 564 
1025 9740 5067
1026 6163 5376
1027 4690 1023
1028 9095 5078
1029 4427 1657
1030 4543 3334
1031 2052 3849
1032 3852 3694
1033 9169 8103
1034 5400 9254
1035 200  6059
1036 8748 7751
1037 6044 4060
1038 5038 8152
1039 2244 3515
1040 7446 5957
1041 8958 6891
1042 4473 9453
1043 5198 5946
1044 7705 2990
1045 7922 2259
1046 8417 2835
1047 3277 1545
1048 3656 6043
1049 9875 1857
1050 6810 2828
1051 9369 7197
1052 9199 343 
1053 229  4752
1054 5010 6863
1055 3397 1617
1056 2297 357 
1057 6606 5124
1058 6822 7135
1059 414  3319
1060 1618 3025
1061 3724 2803
1062 6368 2385
1063 4500 3104
1064 4873 9437
1065 8983 6069
1066 3633 630 
1067 3606 4637
1068 5559 4090
1069 6601 7401
1070 5906 7884
1071 6913 5772
1072 2164 1205
1073 4986 535 
1074 3252 3540
1075 4387 6836
1076 4338 7342
1077 5223 6098
1078 9377 7503
1079 4773 8787
1080 3980 4223
1081 5239 3738
1082 2867 3136
1083 5827 2151
1084 7786 4790
1085 4689 6843
1086 4910 1256
1087 8762 9817
1088 1075 2763
1089 7097 1067
1090 5985 6297
1091 7836 8043
1092 7560 6572
1093 4045 4036
1094 4165 5362
1095 6904 6127
1096 321  4559
1097 7553 8207
1098 7475 7471
1099 7613 8429
1100 7175 7466
1101 2631 8700
1102 1730 4677
1103 1518 9442
1104 9365 1703
1105 2300 2182
1106 1736 4634
1107 4312 2366
1108 5397 3417
1109 9929 5659
1110 2771 316 
1111 4779 4235
1112 2610 6318
1113 4540 6181
1114 6670 2488
1115 85   157 
1116 4372 9088
1117 2377 8471
1118 6991 3403
1119 5187 9362
1120 8572 8084
1121 1800 8989
1122 9160 6162
1123 4830 5744
1124 5980 8558
1125 5750 9340
1126 9850 2317
1127 3172 4628
1128 9504 8445
1129 5387 4019
1130 8528 8077
1131 883  7839
1132 6230 6457
1133 2811 4820
1134 4243 2844
1135 1668 7155
1136 2229 6683
1137 5772 4781
1138 6649 895 
1139 3207 7116
1140 2953 200 
1141 1342 116 
1142 4658 8418
1143 8180 2059
1144 132  6381
1145 1929 7211
1146 4193 8043
1147 4617 7174
1148 970  9731
1149 9549 2592
1150 4381 1798
1151 3000 2398
1152 9154 1683
1153 7869 4274
1154 8128 5945
1155 6612 7551
1156 6715 3859
1157 8058 1599
1158 6607 5181
1159 1997 3282
1160 6098 316 
1161 1359 6629
1162 3642 1333
1163 4776 6232
1164 8447 2429
1165 6633 2401
1166 4981 4896
1167 6511 8697
1168 1068 4429
1169 2420 6805
1170 8458 9319
1171 578  700 
1172 7802 5379
1173 3258 1082
1174 6828 9575
1175 7561 4560
1176 4795 4209
1177 4190 7952
1178 7416 1303
1179 4459 9141
1180 5502 2340
1181 5514 8456
1182 1354 6878
1183 1351 4762
1184 1953 1609
1185 7020 2183
1186 4445 2421
1187 2630 529 
1188 80   5334
1189 9554 7581
1190 371  3286
1191 7146 9623
1192 905  5701
1193 4475 962 
1194 8876 9   
1195 206  6858
1196 4390 840 
1197 3079 769 
1198 7792 9705
1199 7862 2006
1200 7599 5150
1201 3946 9894
1202 8492 6790
1203 279  8885
1204 7598 8559
1205 3184 672 
1206 4653 3719
1207 6026 8577
1208 89   2018
1209 1133 8872
1210 2665 2579
1211 9215 576 
1212 6161 3557
1213 3951 7799
1214 7053 5571
1215 1156 1970
1216 2360 9606
1217 998  4074
1218 4753 4864
1219 4462 2520
1220 3772 2743
1221 845  8934
1222 1548 946 
1223 3050 5336
1224 6437 2292
1225 5590 3656
1226 4241 282 
1227 4561 4826
1228 8881 2606
1229 9958 9316
1230 7350 6978
1231 9939 1180
1232 3071 7688
1233 8627 1660
1234 7638 7714
1235 379  4622
1236 2723 6806
1237 6224 8317
1238 6062 775 
1239 5547 8534
1240 9115 2381
1241 7499 7549
1242 7849 7229
1243 6035 8101
1244 8513 2405
1245 5054 298 
1246 8534 7784
1247 5214 3813
1248 9468 5696
1249 7887 809 
1250 4539 5602
1251 103  5565
1252 7057 2139
1253 5296 3628
1254 1942 2708
1255 5069 6723
1256 1736 3521
1257 4090 9789
1258 4701 8299
1259 2733 2683
1260 5112 4601
1261 5422 9966
1262 4003 2695
1263 3489 2368
1264 2868 5796
1265 3514 5904
1266 8387 8027
1267 207  9004
1268 9363 2588
1269 4158 5071
1270 5176 4551
1271 9797 5585
1272 2571 5183
1273 4770 2123
1274 9185 3951
1275 8445 5889
1276 7249 885 
1277 4215 2595
1278 185  2158
1279 1828 7673
1280 3727 2120
1281 5182 9733
1282 6707 2144
1283 7466 4957
1284 926  3538
1285 6904 3243
1286 4576 642 
1287 3928 6731
1288 9288 4900
1289 8199 2070
1290 7508 2766
1291 5618 3070
1292 9775 534 
1293 3267 6244
1294 7092 2499
1295 7975 3194
1296 7960 2940
1297 6904 8699
1298 4221 6826
1299 2962 8612
1300 7604 2433
1301 2500 7320
1302 938  1431
1303 2031 5348
1304 8808 8187
1305 3718 229 
1306 6922 130 
1307 336  6631
1308 4318 7477
1309 2830 5150
1310 414  6787
1311 9852 3773
1312 1653 5121
1313 7952 6888
1314 5998 2631
1315 2597 9837
1316 2602 3225
1317 401  4191
1318 2295 9846
1319 886  7155
1320 4472 7619
1321 2048 8619
1322 9862 9218
1323 1133 2792
1324 2437 2171
1325 7297 8295
1326 3379 3053
1327 628  1640
1328 5892 9044
1329 3175 3528
1330 6002 9377
1331 3204 9642
1332 2510 7345
1333 2210 1360
1334 2838 9976
1335 3248 7876
1336 9208 3793
1337 5842 3631
1338 4235 9449
1339 4750 8742
1340 9918 5526
1341 4129 271 
1342 8754 8774
1343 9669 1722
1344 4258 7052
1345 5148 2356
1346 376  8940
1347 5109 1094
1348 8775 299 
1349 1499 8959
1350 813  3914
1351 8826 4953
1352 3780 747 
1353 8549 7785
1354 8895 5710
1355 7810 9899
1356 321  5391
1357 1197 7   
1358 3197 3831
1359 8935 6896
1360 9641 3428
1361 5591 2074
1362 8613 7036
1363 1451 4953
1364 6701 3648
1365 5171 9694
1366 7138 3280
1367 9064 4707
1368 2859 7463
1369 2160 9094
1370 9617 2149
1371 9798 380 
1372 5273 7192
1373 3625 8821
1374 4985 3077
1375 2553 9433
1376 8795 3245
1377 9561 6632
1378 7097 1923
1379 3673 2280
1380 6134 7777
1381 138  6716
1382 7066 1266
1383 6006 1571
1384 1400 7124
1385 7914 9224
1386 9839 3501
1387 9002 5476
1388 9127 1825
1389 9482 2352
1390 2418 8312
1391 4403 3399
1392 995  9364
1393 2039 2484
1394 2777 864 
1395 1194 6292
1396 6034 7721
1397 6743 1409
1398 4539 7906
1399 1525 1804
1400 5700 4542
1401 4167 5751
1402 6379 2727
1403 2538 9931
1404 4230 5990
1405 4523 7682
1406 1343 3409
1407 2365 8481
1408 127  2102
1409 540  9730
1410 6517 5930
1411 5794 4163
1412 2008 9475
1413 8952 1454
1414 3937 9020
1415 5053 2393
1416 4826 7661
1417 658  1150
1418 2903 3000
1419 897  7809
1420 4140 3037
1421 2903 4441
1422 2567 756 
1423 9740 1941
1424 7282 3075
1425 1347 1059
1426 3968 6862
1427 1130 6694
1428 7553 4718
1429 1848 1082
1430 9354 4345
1431 5839 4907
1432 5130 5973
1433 5224 4924
1434 4983 3227
1435 133  8220
1436 9984 7235
1437 3358 5368
1438 7671 8921
1439 364  6741
1440 5850 1144
1441 1786 7637
1442 4738 3302
1443 1301 2030
1444 7272 9348
1445 2619 6446
1446 937  9492
1447 6766 979 
1448 191  5810
1449 1493 6460
1450 1037 2020
1451 3544 9338
1452 46   9421
1453 5745 4984
1454 9786 613 
1455 6966 7655
1456 8097 2441
1457 3758 7956
1458 1168 5747
1459 4029 4453
1460 7792 2726
1461 5887 4902
1462 677  3071
1463 9940 5562
1464 6788 6758
1465 2965 1600
1466 6207 105 
1467 3792 2308
1468 6728 6764
1469 1768 1451
1470 6063 6293
1471 2491 9612
1472 3835 9587
1473 813  1382
1474 736  4837
1475 6602 6913
1476 5770 1985
1477 1282 8654
1478 8398 4226
1479 220  946 
1480 609  2294
1481 281  8703
1482 6458 9178
1483 5896 1366
1484 843  5346
1485 4141 6170
1486 1234 7259
1487 5374 1980
1488 914  9309
1489 7325 5623
1490 1623 3630
1491 9658 5700
1492 8574 2832
1493 166  1270
1494 3554 1425
1495 6127 4625
1496 6227 9992
1497 1027 120 
1498 3003 8122
1499 7436 5684
1500 1746 1196
1501 6505 2261
1502 9205 1601
1503 447  7347
1504 6388 7167
1505 6235 7373
1506 4409 3994
1507 4451 7007
1508 787  214 
1509 2643 9933
1510 8802 9538
1511 4854 7132
1512 7087 6148
1513 5763 8944
1514 5969 9134
1515 4351 8636
1516 1351 3957
1517 8222 271 
1518 4172 5901
1519 3286 1819
1520 5735 4472
1521 6504 6865
1522 2804 6981
1523 9291 9746
1524 293  6172
1525 9862 8497
1526 5587 32  
1527 7867 2176
1528 9382 5924
1529 9035 3024
1530 1766 3058
1531 6901 9686
1532 5015 875 
1533 6744 8240
1534 125  8949
1535 8763 173 
1536 9037 8710
1537 1362 368 
1538 3900 7311
1539 7221 6026
1540 9306 7665
1541 7960 2871
1542 1067 4920
1543 7650 5147
1544 6650 6739
1545 4057 1802
1546 3340 9858
1547 2575 4347
1548 834  5990
1549 457  27  
1550 3569 6855
1551 6520 4742
1552 9040 9982
1553 7459 3105
1554 3967 7792
1555 8921 2771
1556 5426 6951
1557 7865 2042
1558 5515 8314
1559 303  1259
1560 6226 9680
1561 7445 901 
1562 8408 7308
1563 9580 6839
1564 9616 7160
1565 4363 9964
1566 8701 4752
1567 2597 835 
1568 2247 3892
1569 7044 1504
1570 4796 5707
1571 9088 7919
1572 8934 5419
1573 5084 4331
1574 1453 3428
1575 8194 3755
1576 7646 4816
1577 3181 6109
1578 6338 1036
1579 7057 1165
1580 3539 234 
1581 7536 2040
1582 1365 2130
1583 1931 2994
1584 3937 6772
1585 1832 5339
1586 1419 9200
1587 1974 4106
1588 2992 7051
1589 1842 2500
1590 8254 5064
1591 9387 1654
1592 3726 5408
1593 7773 2797
1594 9206 9350
1595 7714 1519
1596 1850 8272
1597 6265 9301
1598 9693 794 
1599 4562 6219
1600 8740 7307
1601 7575 4967
1602 195  1476
1603 5991 5857
1604 7133 7582
1605 246  9777
1606 2292 7499
1607 5871 7786
1608 3697 4866
1609 9069 294 
1610 3779 7218
1611 3253 2527
1612 2553 5870
1613 2863 3111
1614 3888 6714
1615 66   6191
1616 82   8926
1617 4184 6581
1618 3928 4277
1619 1519 2490
1620 7550 8908
1621 1269 6959
1622 3781 8714
1623 7940 8713
1624 4896 751 
1625 3061 256 
1626 4522 4742
1627 6236 1097
1628 8404 3100
1629 6998 392 
1630 7701 8197
1631 565  6534
1632 2649 2472
1633 4410 7501
1634 8885 4562
1635 7379 7403
1636 8944 4679
1637 4402 970 
1638 2800 9937
1639 6214 5316
1640 3778 2077
1641 251  3105
1642 6963 6332
1643 4628 1271
1644 4883 1897
1645 6373 43  
1646 7344 8358
1647 8588 3618
1648 9406 8642
1649 7410 8548
1650 1477 7512
1651 2544 4251
1652 4409 2048
1653 9548 3569
1654 8990 144 
1655 248  568 
1656 4214 7147
1657 6301 1049
1658 587  754 
1659 9362 2142
1660 8374 288 
1661 5190 1605
1662 2914 2042
1663 4603 1012
1664 9606 5286
1665 5734 8198
1666 7098 6784
1667 8868 9583
1668 3690 6221
1669 6063 446 
1670 9723 3065
1671 6304 7495
1672 1225 1018
1673 5865 5322
1674 1476 5850
1675 9281 8264
1676 6154 5006
1677 200  2589
1678 4969 3966
1679 1658 3723
1680 8218 8913
1681 1506 5551
1682 5692 961 
1683 6436 6495
1684 5849 2152
1685 6812 8217
1686 6030 5487
1687 8581 1666
1688 4192 1180
1689 966  3628
1690 4739 5007
1691 285  6300
1692 9007 4205
1693 57   9899
1694 6571 8036
1695 2026 1521
1696 2434 8646
1697 7396 741 
1698 160  5998
1699 1901 7652
1700 8043 4260
1701 3696 6429
1702 9281 7986
1703 2742 3123
1704 7440 8896
1705 5079 5173
1706 879  359 
1707 8148 5139
1708 1131 6008
1709 8293 6524
1710 5370 4262
1711 2089 3475
1712 5213 9028
1713 8534 3253
1714 1750 6910
1715 2584 3370
1716 3571 156 
1717 7606 6423
1718 2368 3886
1719 2128 904 
1720 7231 922 
1721 6899 8357
1722 109  4358
1723 3681 8869
1724 8600 7235
1725 9446 6516
1726 1496 7204
1727 4035 5087
1728 3145 5732
1729 172  8863
1730 9237 849 
1731 216  6304
1732 2615 4103
1733 2133 9683
1734 41   7086
1735 5181 8338
1736 5890 4329
1737 2816 3865
1738 7236 2415
1739 7329 6286
1740 3393 1167
1741 4071 9604
1742 7913 1392
1743 166  1058
1744 9999 7624
1745 8925 6404
1746 766  8946
1747 1393 1742
1748 4449 8162
1749 680  25  
1750 309  1780
1751 3524 4071
1752 3032 5992
1753 9773 2765
1754 7740 3435
1755 4003 1037
1756 9191 9868
1757 9508 5960
1758 9139 2394
1759 7327 8189
1760 3060 2713
1761 2691 510 
1762 9204 4587
1763 4793 2764
1764 426  3797
1765 2248 7325
1766 4857 5743
1767 6091 3701
1768 2161 6135
1769 2008 7946
1770 7969 8660
1771 3773 731 
1772 967  2914
1773 8281 208 
1774 5742 8170
1775 4596 1368
1776 2134 5307
1777 1033 3976
1778 5109 7595
1779 3646 5662
1780 5094 9819
1781 7960 331 
1782 1964 2729
1783 141  5781
1784 9773 3531
1785 3271 9   
1786 118  8436
1787 2159 3350
1788 5812 3703
1789 257  6133
1790 5392 5852
1791 7421 339 
1792 1620 6168
1793 6351 2275
1794 1679 4515
1795 3997 671 
1796 3728 9928
1797 6591 19  
1798 574  3549
1799 5576 2556
1800 5699 2225
1801 2018 7569
1802 6012 6296
1803 9446 3347
1804 8966 3950
1805 4160 2331
1806 9544 7203
1807 8560 2565
1808 9089 8436
1809 6294 1229
1810 502  9691
1811 9608 4726
1812 7016 8693
1813 4592 1250
1814 1931 6013
1815 4560 8545
1816 4697 27  
1817 3272 1149
1818 2655 5655
1819 2862 9230
1820 555  2296
1821 7046 9612
1822 8954 173 
1823 7088 3896
1824 8793 8374
1825 8758 2976
1826 8578 4881
1827 5792 8695
1828 8302 6390
1829 9049 220 
1830 4646 4297
1831 1722 2378
1832 862  4839
1833 2995 6909
1834 6042 7776
1835 9491 5297
1836 6244 2097
1837 496  4470
1838 5651 9623
1839 9446 8721
1840 3049 1523
1841 3634 5653
1842 1775 9297
1843 8003 1359
1844 427  1226
1845 2720 5152
1846 377  637 
1847 7923 5266
1848 906  3985
1849 964  1062
1850 8748 2253
1851 618  5712
1852 2184 3147
1853 5019 655 
1854 1142 3088
1855 6856 2986
1856 5171 4741
1857 8488 9428
1858 8003 562 
1859 8579 8009
1860 3449 4283
1861 4928 4075
1862 5930 5473
1863 6706 585 
1864 157  3363
1865 9011 621 
1866 4296 1469
1867 6947 622 
1868 3278 7965
1869 4205 7404
1870 9933 3053
1871 8492 1248
1872 193  954 
1873 9894 3996
1874 4458 7082
1875 5703 1350
1876 1211 428 
1877 731  2936
1878 6213 1678
1879 5475 4415
1880 8293 5870
1881 602  7583
1882 6654 8287
1883 4255 1773
1884 5892 9411
1885 6367 7170
1886 6459 8287
1887 9435 34  
1888 5740 9596
1889 5947 6102
1890 650  2917
1891 1522 4293
1892 8129 7931
1893 9932 2821
1894 7215 3804
1895 927  9974
1896 798  5983
1897 105  7377
1898 1433 8513
1899 3435 3931
1900 6477 8105
1901 5136 3091
1902 1725 2107
1903 5448 4857
1904 3259 3607
1905 9137 2982
1906 4178 8537
1907 9370 9850
1908 7757 6052
1909 4807 8216
1910 9671 5479
1911 2872 942 
1912 4554 8629
1913 1655 5685
1914 88   290 
1915 8746 6529
1916 828  5728
1917 7774 862 
1918 7906 9816
1919 1907 1357
1920 2443 5548
1921 5267 8555
1922 4330 8767
1923 6719 6955
1924 1645 7074
1925 564  8566
1926 773  7973
1927 5019 6549
1928 3831 4016
1929 9359 567 
1930 8476 2103
1931 6728 5197
1932 5334 7088
1933 8857 3911
1934 3481 4384
1935 3296 7088
1936 2489 4526
1937 1487 5832
1938 4394 2874
1939 8674 9807
1940 7493 577 
1941 946  223 
1942 8308 4356
1943 3368 2085
1944 3415 2674
1945 2306 1712
1946 8946 576 
1947 2917 8543
1948 2903 6494
1949 4678 8233
1950 2423 10  
1951 5415 8506
1952 2930 2798
1953 3212 4780
1954 9400 666 
1955 8338 7546
1956 986  7368
1957 5253 5935
1958 1344 8880
1959 6535 6026
1960 5688 2860
1961 7485 6949
1962 5719 9177
1963 4356 9789
1964 5439 732 
1965 9688 3155
1966 354  4477
1967 9920 7382
1968 5707 139 
1969 2678 9773
1970 1111 6001
1971 4781 6787
1972 5165 7886
1973 107  4258
1974 5374 2377
1975 8251 1612
1976 2760 6039
1977 973  8366
1978 5988 6386
1979 6719 1519
1980 1893 7828
1981 8234 4469
1982 5366 2531
1983 9878 1384
1984 8933 4032
1985 3345 3319
1986 662  9148
1987 4797 7716
1988 3919 1873
1989 9086 2497
1990 4066 8733
1991 9774 5514
1992 3710 6581
1993 2832 4068
1994 3559 2662
1995 3876 2543
1996 3579 3884
1997 874  5453
1998 9927 2456
1999 5391 3489
2000 6504 2346
2001 9836 978 
2002 1123 1953
2003 7023 7078
2004 5952 6700
2005 4653 7562
2006 8729 8828
2007 8993 7839
2008 1330 5441
2009 1339 2048
2010 7115 42  
2011 4987 8406
2012 9851 2452
2013 346  3771
2014 9434 6971
2015 8334 3237
2016 1423 404 
2017 1135 2242
2018 7624 2337
2019 9869 5285
2020 1867 7841
2021 6329 8929
2022 8037 640 
2023 9801 8018
2024 1517 2761
2025 7547 802 
2026 9411 6170
2027 6191 9423
2028 8680 271 
2029 6818 7719
2030 6660 4957
2031 9082 4373
2032 2402 124 
2033 2548 8387
2034 2206 521 
2035 6332 1399
2036 9824 8519
2037 5613 4411
2038 3405 8219
2039 5946 8009
2040 2122 9170
2041 4415 6587
2042 2523 7396
2043 5350 6679
2044 8636 4942
2045 1234 713 
2046 2386 991 
2047 2831 5927
2048 9346 9427
2049 9483 89  
2050 776  7695
2051 4334 1821
2052 3001 3658
2053 4182 8131
2054 3071 8550
2055 1294 2769
2056 2177 1987
2057 7955 851 
2058 9421 9154
2059 9538 7793
2060 2074 8832
2061 6610 7077
2062 4807 440 
2063 1138 5851
2064 7277 4635
2065 6739 889 
2066 9692 3073
2067 6625 230 
2068 156  5594
2069 4462 5812
2070 6882 5038
2071 5983 2334
2072 8480 6978
2073 4243 7989
2074 8300 4949
2075 5048 8030
2076 7826 5920
2077 474  4846
2078 9196 3713
2079 1386 1348
2080 3263 5810
2081 2921 877 
2082 8779 1352
2083 1284 4681
2084 7190 9775
2085 6531 5675
2086 5872 893 
2087 3140 9136
2088 7111 690 
2089 9577 9757
2090 2565 6105
2091 5378 611 
2092 5096 5362
2093 2991 7431
2094 7935 2327
2095 2219 7609
2096 8765 6032
2097 9334 1278
2098 7865 796 
2099 3074 6045
2100 2609 2023
2101 2019 5111
2102 6354 3685
2103 9507 714 
2104 8740 1326
2105 7957 6333
2106 5552 8700
2107 5477 9422
2108 5800 6868
2109 7443 6715
2110 5607 997 
2111 5100 2910
2112 4378 2609
2113 5944 9506
2114 5241 4308
2115 8199 7484
2116 6493 399 
2117 1639 5949
2118 5555 4267
2119 3699 8756
2120 6348 9161
2121 9964 6710
2122 4292 4202
2123 4213 8820
2124 5528 3763
2125 4716 2830
2126 9175 6442
2127 3648 5274
2128 3847 4923
2129 1839 2997
2130 8559 6282
2131 2677 4643
2132 2538 975 
2133 3517 1175
2134 1629 2146
2135 5139 5068
2136 7533 8008
2137 7314 9   
2138 5277 9432
2139 6288 8942
2140 923  5730
2141 4881 4601
2142 2734 8567
2143 6002 1802
2144 6772 8624
2145 6763 3847
2146 5756 2751
2147 9908 7469
2148 4480 8949
2149 4135 8207
2150 1175 4414
2151 7312 1865
2152 6720 3342
2153 765  6548
2154 6939 5625
2155 9359 4192
2156 3124 2804
2157 6033 1921
2158 6310 7043
2159 2835 5634
2160 963  6898
2161 1846 263 
2162 8760 2274
2163 1429 3588
2164 3404 4061
2165 4049 8314
2166 356  2303
2167 6330 3750
2168 140  1980
2169 3281 8795
2170 8079 6874
2171 4487 1730
2172 568  6697
2173 7485 9617
2174 5533 5308
2175 9514 3332
2176 2478 990 
2177 9486 1049
2178 6986 5388
2179 9109 6685
2180 1698 3466
2181 6102 7122
2182 6167 8143
2183 5613 829 
2184 316  8891
2185 1747 4951
2186 9810 448 
2187 3997 583 
2188 5526 5464
2189 4132 5587
2190 7588 9350
2191 7527 7212
2192 6166 8858
2193 8833 2628
2194 9426 7847
2195 431  9116
2196 239  7110
2197 5622 2002
2198 2337 5929
2199 9025 2855
2200 7502 713 
2201 216  4160
2202 46   7970
2203 8772 1063
2204 8501 5300
2205 1517 7951
2206 351  9616
2207 7565 5050
2208 9742 1773
2209 5577 9770
2210 1722 2024
2211 9348 8396
2212 370  7942
2213 9695 5368
2214 4960 8656
2215 9280 6782
2216 8590 1597
2217 3806 1638
2218 8426 5887
2219 5929 1613
2220 6858 2792
2221 6438 7652
2222 4899 8367
2223 6436 7750
2224 4425 8321
2225 2664 7820
2226 7656 3777
2227 8968 6487
2228 5932 2855
2229 2207 713 
2230 4622 6567
2231 5271 4727
2232 7548 6902
2233 237  8709
2234 4367 5697
2235 8988 8571
2236 9562 144 
2237 9423 8844
2238 527  4311
2239 3481 4850
2240 4444 9239
2241 757  7549
2242 7366 3104
2243 5168 9910
2244 9439 8086
2245 1676 2047
2246 4789 3813
2247 8140 1886
2248 5412 8632
2249 4135 2536
2250 5049 9687
2251 5189 9348
2252 6784 1812
2253 8216 8763
2254 4799 5902
2255 3774 9846
2256 1877 4287
2257 7180 3697
2258 977  2384
2259 2559 6261
2260 1680 2925
2261 9944 3467
2262 5213 8848
2263 8635 765 
2264 8399 9434
2265 780  9474
2266 152  7859
2267 8637 8348
2268 5622 3927
2269 8273 7539
2270 7790 8485
2271 2537 3695
2272 2795 3112
2273 5167 2715
2274 5636 2308
2275 9602 4953
2276 1960 8191
2277 4086 6821
2278 4285 5750
2279 243  9624
2280 2787 3465
2281 6274 7001
2282 5157 7611
2283 7568 9454
2284 71   7357
2285 201  633 
2286 2535 5897
2287 1242 4760
2288 6810 7924
2289 7081 52  
2290 5328 8388
2291 1721 9842
2292 944  2046
2293 8828 3356
2294 4614 4310
2295 7484 9792
2296 3579 9919
2297 6386 949 
2298 5073 2094
2299 1792 9378
2300 9027 699 
2301 4329 5229
2302 4927 8715
2303 9804 5268
2304 6854 1638
2305 4772 9938
2306 5934 6962
2307 4923 781 
2308 1097 9194
2309 2584 1923
2310 8482 7811
2311 6682 3684
2312 6881 3964
2313 5133 7603
2314 648  2556
2315 6124 2569
2316 8640 6210
2317 6771 1022
2318 5659 9308
2319 91   3139
2320 8049 9289
2321 6902 3640
2322 2103 721 
2323 833  4058
2324 8058 3101
2325 8809 4584
2326 8938 7257
2327 1638 4761
2328 8286 5809
2329 7579 9924
2330 665  7809
2331 2314 5914
2332 520  4252
2333 3301 6806
2334 6421 3436
2335 4822 1322
2336 8160 1730
2337 2816 4380
2338 5556 272 
2339 5983 8683
2340 6611 4946
2341 8978 4342
2342 5765 2883
2343 166  4252
2344 1572 2607
2345 942  2290
2346 6917 2631
2347 4518 9919
2348 5041 6849
2349 4904 5139
2350 9395 7203
2351 8987 7813
2352 1615 4019
2353 9241 5352
2354 871  3560
2355 4786 7796
2356 9693 8816
2357 4443 2621
2358 9051 480 
2359 6388 5527
2360 2032 5547
2361 8942 6623
2362 5909 3439
2363 460  1102
2364 5687 2321
2365 3194 2362
2366 8149 7521
2367 338  8558
2368 2433 5585
2369 1171 229 
2370 4852 9149
2371 4911 6364
2372 6340 7607
2373 3365 4975
2374 7273 2800
2375 6398 2736
2376 5167 8082
2377 5027 1063
2378 1671 3222
2379 6165 1774
2380 4204 2861
2381 9462 8940
2382 4286 2274
2383 8326 4341
2384 4768 2066
2385 1661 1280
2386 6405 1550
2387 2844 4513
2388 5344 6026
2389 4121 1684
2390 6397 2009
2391 3705 6280
2392 5303 2278
2393 2029 6015
2394 5159 2871
2395 9882 5817
2396 1714 8513
2397 6798 372 
2398 9591 9074
2399 1306 5845
2400 5423 3510
2401 2088 5540
2402 1147 9558
2403 1143 4266
2404 8562 1312
2405 9227 4264
2406 3188 917 
2407 184  7056
2408 2823 8914
2409 7137 5604
2410 6860 9029
2411 3042 2368
2412 3886 5697
2413 4630 6578
2414 9467 8548
2415 7023 7143
2416 2842 5681
2417 9082 273 
2418 1380 6326
2419 3701 9605
2420 5792 8675
2421 6610 1045
2422 9412 6453
2423 3040 7996
2424 9599 4125
2425 5839 1944
2426 4321 5315
2427 7630 7667
2428 5580 8986
2429 3725 5796
2430 8639 1604
2431 1462 3003
2432 6017 8755
2433 5995 6779
2434 703  8259
2435 9661 536 
2436 9401 3164
2437 6305 4628
2438 77   5014
2439 3113 3789
2440 1523 6440
2441 3961 555 
2442 3616 6452
2443 7748 2440
2444 5797 1515
2445 4226 7221
2446 6067 4913
2447 1072 9757
2448 8338 2712
2449 952  3973
2450 8173 3686
2451 7453 3180
2452 9448 5522
2453 8307 5315
2454 6115 4125
2455 4072 8039
2456 1538 5912
2457 5774 6857
2458 6991 4132
2459 1197 2187
2460 7383 2340
2461 2462 826 
2462 3097 8209
2463 9162 6372
2464 3315 9030
2465 8413 7176
2466 2335 5134
2467 647  3853
2468 3519 1648
2469 3711 7982
2470 8286 3446
2471 561  7458
2472 7662 2171
2473 3748 6348
2474 9556 7644
2475 2217 5745
2476 1594 817 
2477 4444 27  
2478 9251 3069
2479 9988 4022
2480 8547 3056
2481 7764 5252
2482 2337 2379
2483 8446 4639
2484 2052 5814
2485 6098 5367
2486 5860 5981
2487 631  1822
2488 4093 3825
2489 6696 9901
2490 6902 9453
2491 659  3654
2492 6179 5654
2493 174  1989
2494 9843 689 
2495 1746 7291
2496 4811 3427
2497 1695 5402
2498 9924 3053
2499 1878 3972
2500 4950 9683
2501 1500 4673
2502 5160 8594
2503 4508 1467
2504 3841 7837
2505 4500 2351
2506 8386 4004
2507 622  1003
2508 8463 7675
2509 5561 3088
2510 5573 1855
2511 6    3945
2512 657  1317
2513 4699 846 
2514 2873 4127
2515 507  5784
2516 7455 5235
2517 7191 1590
2518 817  9918
2519 8330 9049
2520 965  3507
2521 9727 3473
2522 5267 8078
2523 1443 1737
2524 3343 3111
2525 1529 9237
2526 9695 2110
2527 3738 6867
2528 1012 6320
2529 7654 659 
2530 1853 2417
2531 6309 5604
2532 5991 640 
2533 3410 684 
2534 8994 2012
2535 2654 623 
2536 5140 5443
2537 4903 4603
2538 4425 5640
2539 5074 5073
2540 6374 3907
2541 5926 5716
2542 1051 4305
2543 5981 5015
2544 3415 7584
2545 8642 9634
2546 6810 3815
2547 8301 7689
2548 6084 56  
2549 7672 4192
2550 7686 688 
2551 9377 7637
2552 3130 9166
2553 3693 4673
2554 9419 3461
2555 4557 1177
2556 7323 4882
2557 3552 9976
2558 5503 5936
2559 9252 4880
2560 9914 4223
2561 4278 7044
2562 1454 1825
2563 59   9130
2564 3473 2815
2565 1832 1799
2566 9780 8069
2567 9733 3798
2568 6608 376 
2569 5053 1295
2570 3264 1309
2571 6320 199 
2572 325  7497
2573 1985 8216
2574 5606 6514
2575 8772 7017
2576 3244 4411
2577 4829 8756
2578 5587 558 
2579 6848 5712
2580 7473 5219
2581 5319 8223
2582 2877 9965
2583 805  9397
2584 1807 7315
2585 7376 1939
2586 6441 1510
2587 3154 3956
2588 1518 4040
2589 7214 9846
2590 5102 2795
2591 2452 6298
2592 8422 1232
2593 5929 3170
2594 6810 6944
2595 8409 5459
2596 6795 5308
2597 8709 3527
2598 9355 6934
2599 7107 4021
2600 1342 4860
2601 9049 3776
2602 1596 769 
2603 3696 5167
2604 3030 3942
2605 6017 1930
2606 5133 8360
2607 7094 159 
2608 8556 2070
2609 4586 9449
2610 5076 4204
2611 1736 6594
2612 2821 6795
2613 2836 1973
2614 3602 9339
2615 664  9573
2616 3617 1073
2617 9111 873 
2618 777  9226
2619 8704 5926
2620 146  3389
2621 9885 704 
2622 6700 1323
2623 2221 7475
2624 6292 6021
2625 5267 4650
2626 956  2694
2627 8034 8698
2628 2528 289 
2629 6673 9957
2630 6402 201 
2631 4714 5482
2632 6466 4105
2633 4822 5206
2634 9595 6009
2635 5820 4393
2636 9434 2172
2637 2303 1690
2638 10   4847
2639 4642 1376
2640 8966 3929
2641 59   2224
2642 1228 5342
2643 8980 2099
2644 838  5654
2645 8929 2282
2646 9767 6204
2647 8574 2896
2648 3171 3857
2649 5917 730 
2650 2707 564 
2651 5545 2919
2652 5608 9316
2653 5294 9276
2654 9406 6689
2655 7735 6917
2656 3983 2808
2657 9973 7610
2658 8488 9153
2659 9166 8516
2660 6430 3298
2661 7611 9561
2662 7962 6563
2663 6417 5109
2664 5480 8648
2665 8952 4909
2666 7827 7139
2667 7937 8275
2668 6141 823 
2669 4314 4721
2670 6784 990 
2671 8449 3083
2672 4187 7548
2673 3868 3160
2674 8841 7040
2675 4576 1152
2676 8550 9064
2677 1256 4098
2678 6160 6692
2679 609  7993
2680 2510 2596
2681 3515 8185
2682 4278 5199
2683 5156 3918
2684 4509 8672
2685 8582 7427
2686 2109 7864
2687 3843 2909
2688 255  8052
2689 691  2807
2690 6860 5271
2691 400  9490
2692 5049 5596
2693 7203 5858
2694 2451 3689
2695 5437 264 
2696 2504 3756
2697 6741 8988
2698 6561 7440
2699 5964 5849
2700 1196 9752
2701 3348 8060
2702 7560 1085
2703 7578 8049
2704 1731 4314
2705 3625 6355
2706 4368 2477
2707 6573 7329
2708 6399 2182
2709 6049 5433
2710 1776 6463
2711 479  9234
2712 3630 5854
2713 1675 2655
2714 6011 2226
2715 4631 9846
2716 4357 2040
2717 7290 2367
2718 3888 182 
2719 140  1791
2720 7142 889 
2721 3350 1188
2722 9058 4727
2723 7108 9667
2724 4950 8358
2725 6022 7601
2726 5146 8780
2727 3433 4647
2728 3344 5707
2729 6759 1589
2730 2811 2296
2731 8081 7498
2732 6349 6980
2733 4623 1994
2734 1913 5914
2735 2704 9398
2736 9862 2306
2737 3572 9353
2738 8370 9801
2739 5949 3172
2740 2889 4870
2741 3177 3975
2742 1576 7086
2743 8135 2101
2744 7179 209 
2745 2859 5259
2746 1661 7336
2747 3760 9993
2748 3699 3559
2749 1204 3682
2750 942  4978
2751 3083 8643
2752 374  4389
2753 4141 1403
2754 4605 6454
2755 8355 3071
2756 5295 4134
2757 2990 1306
2758 4060 7278
2759 3179 7768
2760 2370 3419
2761 9676 648 
2762 3258 5714
2763 4891 7293
2764 1778 4470
2765 1039 6200
2766 9745 425 
2767 4782 3717
2768 1805 7075
2769 2259 6554
2770 3236 6276
2771 6421 2882
2772 3686 416 
2773 4060 4547
2774 5323 5949
2775 1064 9577
2776 181  7133
2777 9681 342 
2778 4874 4790
2779 6862 7618
2780 1522 8355
2781 8072 3319
2782 9351 922 
2783 3053 8046
2784 1779 4135
2785 1945 4691
2786 56   3493
2787 5504 4171
2788 4353 4925
2789 9751 7835
2790 8512 6824
2791 8130 9902
2792 4764 5804
2793 5546 7657
2794 34   6168
2795 4966 4580
2796 563  8530
2797 1332 588 
2798 4855 2501
2799 7060 6764
2800 8115 3123
2801 3252 5656
2802 3472 2788
2803 9523 4679
2804 9189 7032
2805 8766 7082
2806 1482 2107
2807 3711 5240
2808 7659 3201
2809 2278 4346
2810 3312 4301
2811 9969 4452
2812 9061 6473
2813 4360 3245
2814 7500 3588
2815 1859 572 
2816 3181 8573
2817 3604 1244
2818 6717 9348
2819 6315 204 
2820 6279 791 
2821 4236 5909
2822 8111 4411
2823 8599 5054
2824 8633 2992
2825 3933 3793
2826 5420 4526
2827 4225 4729
2828 1916 9904
2829 216  1321
2830 393  6197
2831 4779 3523
2832 124  9064
2833 2117 2542
2834 5940 871 
2835 1817 9184
2836 9549 8167
2837 5205 1279
2838 4460 4254
2839 3153 7351
2840 1957 4374
2841 6649 2485
2842 6027 1953
2843 7945 1651
2844 6872 4352
2845 9896 366 
2846 8903 9743
2847 6051 7670
2848 2508 8410
2849 6304 1614
2850 6721 7387
2851 5130 8166
2852 3771 5583
2853 1028 2553
2854 2366 4517
2855 6921 2290
2856 5595 6088
2857 8883 5866
2858 5041 1563
2859 223  3712
2860 9481 12  
2861 2076 8229
2862 8926 4698
2863 8724 4761
2864 5021 4221
2865 2372 9833
2866 2125 5667
2867 8123 5109
2868 4546 2625
2869 6917 5139
2870 5953 5298
2871 9397 6623
2872 541  8995
2873 8100 2594
2874 9781 5708
2875 5608 1755
2876 4479 3840
2877 2461 3941
2878 764  2822
2879 8590 406 
2880 6692 3433
2881 2615 1788
2882 2837 3969
2883 6506 4294
2884 5721 8825
2885 5973 1155
2886 283  2320
2887 6882 3082
2888 7649 3465
2889 6291 1462
2890 9560 6284
2891 5427 1059
2892 7143 4502
2893 8249 2568
2894 6205 1146
2895 6129 5256
2896 2726 8420
2897 1850 1582
2898 7510 6360
2899 6411 670 
2900 7558 2443
2901 8406 4561
2902 2220 9734
2903 807  5362
2904 6147 725 
2905 6114 7777
2906 8292 8315
2907 1463 1326
2908 1286 7234
2909 7700 1833
2910 2175 1271
2911 1280 1727
2912 8051 877 
2913 2976 5349
2914 2985 657 
2915 1079 6892
2916 2528 936 
2917 3701 2117
2918 6544 2638
2919 5356 3497
2920 5534 8638
2921 8997 4297
2922 6790 2568
2923 4972 5659
2924 4811 2821
2925 1973 2427
2926 6272 5550
2927 884  3089
2928 9928 2058
2929 9330 6788
2930 4308 8395
2931 3369 4874
2932 2367 379 
2933 5409 5948
2934 2645 7915
2935 6748 6439
2936 820  1252
2937 1821 6362
2938 9735 136 
2939 6219 2445
2940 292  3370
2941 6602 8907
2942 4535 2897
2943 545  8570
2944 1754 7040
2945 5895 1446
2946 4683 3965
2947 5211 1703
2948 7313 6659
2949 7639 5216
2950 9525 6891
2951 52   4709
2952 6410 4890
2953 6730 4931
2954 1781 9965
2955 2373 8354
2956 1720 9237
2957 7292 5361
2958 8594 1475
2959 2930 7779
2960 6003 1041
2961 3928 4805
2962 792  7034
2963 7101 384 
2964 1089 4143
2965 4039 4740
2966 5721 1518
2967 7262 752 
2968 6157 925 
2969 3601 8471
2970 4200 486 
2971 3502 8916
2972 7101 1691
2973 8687 6476
2974 9089 4159
2975 5382 9779
2976 250  9300
2977 9845 9056
2978 8038 4454
2979 1147 1164
2980 1654 5712
2981 4716 9765
2982 6738 8317
2983 8184 7683
2984 2577 6291
2985 1978 8906
2986 8321 9472
2987 4900 3828
2988 8786 2846
2989 6922 6979
2990 972  854 
2991 7997 2833
2992 2137 3250
2993 2000 1411
2994 4546 5963
2995 523  3836
2996 4560 8887
2997 3406 7974
2998 6466 9258
2999 5980 8962
3000 151  2531
3001 2320 1757
3002 2416 4442
3003 7915 3660
3004 3334 8293
3005 7738 8184
3006 8855 3326
3007 1322 8392
3008 7017 8141
3009 9056 315 
3010 4832 5141
3011 4424 907 
3012 3580 6236
3013 9684 7199
3014 5832 3083
3015 7366 8478
3016 4877 6236
3017 4018 678 
3018 9984 4880
3019 955  3307
3020 1509 2688
3021 2205 9710
3022 5546 8995
3023 4723 8414
3024 2264 9748
3025 8108 8072
3026 3766 4276
3027 9690 3189
3028 8652 5442
3029 1409 9589
3030 8362 3268
3031 7370 7045
3032 7834 631 
3033 9849 2808
3034 5811 4433
3035 9112 1146
3036 6158 2925
3037 7446 1605
3038 77   6950
3039 148  4970
3040 9541 2874
3041 5967 4489
3042 2774 3371
3043 3729 9818
3044 9629 2863
3045 9357 6453
3046 8955 7523
3047 8773 7389
3048 7579 9178
3049 1036 6465
3050 9259 5995
3051 3976 343 
3052 4161 6359
3053 1764 8079
3054 7267 2561
3055 5024 1357
3056 4322 277 
3057 6582 1444
3058 6924 5092
3059 2244 278 
3060 7809 2300
3061 1199 5299
3062 7024 5901
3063 1211 195 
3064 7498 873 
3065 4416 156 
3066 5535 2429
3067 1287 1359
3068 9919 3378
3069 5375 6025
3070 6602 177 
3071 2697 2145
3072 9013 2401
3073 4261 1291
3074 8889 6630
3075 796  2614
3076 7253 3848
3077 4256 5101
3078 8619 3830
3079 5401 4411
3080 4907 7604
3081 3891 940 
3082 3435 8590
3083 8758 4166
3084 7857 9082
3085 6092 1418
3086 3107 1095
3087 4318 5267
3088 8270 8206
3089 587  2355
3090 5607 5879
3091 9905 8015
3092 4499 8350
3093 5612 1505
3094 6012 6174
3095 2641 8934
3096 6802 578 
3097 9333 3383
3098 1717 8695
3099 8492 7340
3100 5321 5718
3101 7933 8683
3102 4740 813 
3103 9263 4683
3104 4547 6302
3105 8753 2787
3106 9382 9364
3107 3621 5429
3108 1691 4614
3109 2056 7336
3110 6843 2440
3111 4293 2716
3112 2133 1170
3113 2858 2851
3114 7323 1084
3115 961  8885
3116 7025 7880
3117 2230 344 
3118 9692 9712
3119 8737 4539
3120 4115 4337
3121 398  1991
3122 6973 6347
3123 9984 6572
3124 9674 5304
3125 9803 1812
3126 4813 3123
3127 2178 9144
3128 931  647 
3129 937  7013
3130 8338 7605
3131 1572 5054
3132 1566 2906
3133 3774 6223
3134 5882 8890
3135 1336 4017
3136 544  3661
3137 4557 8357
3138 2853 6648
3139 4566 3310
3140 605  7094
3141 6563 2463
3142 9880 7459
3143 5395 6925
3144 6865 1018
3145 3226 3664
3146 614  7340
3147 1892 6849
3148 4059 4924
3149 6046 8568
3150 9315 7288
3151 5024 3631
3152 8991 6884
3153 9171 7943
3154 1312 115 
3155 2729 3715
3156 2192 7081
3157 4289 5136
3158 8611 4894
3159 4410 1576
3160 4285 8620
3161 2913 8616
3162 3622 3351
3163 4306 316 
3164 1690 8453
3165 5790 1116
3166 934  6850
3167 3089 3543
3168 1473 160 
3169 6880 1608
3170 9923 2500
3171 6670 3592
3172 8240 2053
3173 9245 5373
3174 5969 1899
3175 5098 8678
3176 3504 2402
3177 9148 8393
3178 8010 3864
3179 7521 6789
3180 2280 4860
3181 913  6619
3182 9054 9080
3183 7827 4469
3184 9746 8983
3185 665  9917
3186 8291 9144
3187 6991 685 
3188 6887 2272
3189 4548 7719
3190 3882 8849
3191 7562 689 
3192 7217 2378
3193 603  376 
3194 5975 331 
3195 4894 9206
3196 8600 9742
3197 6694 1623
3198 6475 219 
3199 5821 7779
3200 5874 7615
3201 3755 8344
3202 7696 2611
3203 3999 8117
3204 5460 8433
3205 1670 9402
3206 2885 2615
3207 9299 6507
3208 162  292 
3209 9350 132 
3210 8078 5020
3211 5748 9036
3212 4185 1726
3213 2954 8580
3214 1857 3692
3215 5816 4326
3216 3873 4112
3217 9740 5370
3218 9988 3249
3219 6762 2285
3220 8902 8853
3221 723  5614
3222 6911 6577
3223 7162 7496
3224 6840 1091
3225 9883 874 
3226 4161 1926
3227 1414 4013
3228 2429 5134
3229 1490 1749
3230 5484 5417
3231 3822 7485
3232 8268 7797
3233 6365 5830
3234 8495 9366
3235 6816 9088
3236 8806 3496
3237 8630 9368
3238 5233 3975
3239 8096 5145
3240 6131 9255
3241 8293 600 
3242 1107 5774
3243 3660 6309
3244 4748 7039
3245 2799 989 
3246 8017 7651
3247 3115 9339
3248 6741 1029
3249 849  2711
3250 5373 9187
3251 611  8465
3252 6189 5355
3253 7916 1248
3254 2151 547 
3255 965  2121
3256 1961 673 
3257 5087 9860
3258 4982 8524
3259 1681 3936
3260 859  7545
3261 2895 1632
3262 3519 8261
3263 18   2513
3264 2532 2032
3265 8317 5782
3266 280  9134
3267 8310 7913
3268 1218 1517
3269 2089 8083
3270 471  152 
3271 8688 2253
3272 5726 731 
3273 7517 3644
3274 8875 9412
3275 445  7485
3276 974  7109
3277 8208 3620
3278 209  8999
3279 693  3361
3280 3732 6978
3281 2751 8165
3282 9972 9985
3283 9039 5695
3284 1268 7595
3285 2851 3038
3286 1992 4564
3287 3840 3654
3288 9369 1792
3289 7590 8322
3290 7619 5941
3291 8495 4807
3292 4773 1237
3293 133  640 
3294 3410 5811
3295 5983 6883
3296 7286 7713
3297 5976 2283
3298 2242 5636
3299 324  9963
3300 1893 7229
3301 6252 6901
3302 9378 2385
3303 1690 6516
3304 5504 7085
3305 4694 4974
3306 3137 1061
3307 5828 1804
3308 9916 9377
3309 6521 7905
3310 270  6435
3311 2699 8687
3312 6600 315 
3313 7821 6655
3314 5687 3896
3315 6829 9536
3316 7913 6637
3317 8991 491 
3318 4352 3552
3319 497  4947
3320 6724 8764
3321 1283 8598
3322 5471 4900
3323 4739 4215
3324 7928 3323
3325 1211 6770
3326 2859 9609
3327 5624 5839
3328 7131 2477
3329 9121 2792
3330 9343 9974
3331 4006 1943
3332 6031 6631
3333 6355 1155
3334 3886 1141
3335 9640 529 
3336 1129 4370
3337 2588 1767
3338 6102 924 
3339 1578 1047
3340 6175 8084
3341 5466 8825
3342 370  8906
3343 7185 4210
3344 1013 9966
3345 9281 2200
3346 2637 3063
3347 4571 7130
3348 9202 5942
3349 4194 4797
3350 1851 3189
3351 8697 3647
3352 8910 6183
3353 5776 7554
3354 7894 4272
3355 8994 7383
3356 7558 9913
3357 9054 5221
3358 5967 7012
3359 2528 5027
3360 987  9865
3361 9710 1687
3362 1800 6512
3363 4064 3319
3364 9546 9698
3365 3130 1069
3366 6447 8859
3367 1354 4715
3368 3205 5478
3369 9524 9698
3370 5800 4522
3371 115  2690
3372 2873 6171
3373 653  5586
3374 6168 4408
3375 436  8617
3376 5305 1160
3377 8550 5914
3378 6811 9244
3379 5896 9359
3380 5474 1370
3381 3540 8186
3382 654  1919
3383 7125 6779
3384 6865 5533
3385 6161 3616
3386 3194 4962
3387 2207 886 
3388 3259 2859
3389 7655 9546
3390 4583 4881
3391 5309 4814
3392 4650 2388
3393 4519 6646
3394 3239 4157
3395 7931 6236
3396 509  2053
3397 9582 4872
3398 5986 250 
3399 8451 1496
3400 6654 763 
3401 5527 1299
3402 5306 6350
3403 974  7967
3404 7580 990 
3405 4153 2450
3406 200  8171
3407 5588 8116
3408 6754 3499
3409 8830 6178
3410 7550 361 
3411 8195 520 
3412 1310 1419
3413 777  1194
3414 3893 7504
3415 7373 4467
3416 5882 8679
3417 6684 4026
3418 6587 3394
3419 8567 3053
3420 7823 8516
3421 7836 4327
3422 5130 5122
3423 2521 5003
3424 2304 4149
3425 7441 4646
3426 8725 3392
3427 9434 1306
3428 665  7800
3429 5618 2382
3430 8793 8248
3431 5139 5051
3432 5214 5334
3433 928  5969
3434 1245 6561
3435 1220 2935
3436 1086 8209
3437 2906 6053
3438 9023 3916
3439 9878 4445
3440 1645 947 
3441 6542 9646
3442 2080 6687
3443 4561 4816
3444 3321 9600
3445 4219 7580
3446 4921 4061
3447 4878 5745
3448 9094 3122
3449 2131 2492
3450 4810 9866
3451 5994 4711
3452 1493 7548
3453 994  1653
3454 3305 2819
3455 6205 8704
3456 8927 4209
3457 7122 3664
3458 6908 9327
3459 1535 8374
3460 5650 8998
3461 12   1220
3462 2678 8733
3463 1686 7165
3464 9168 4057
3465 1283 6631
3466 2427 6978
3467 4249 5283
3468 6579 1419
3469 6938 1458
3470 8951 7588
3471 4309 7481
3472 116  2507
3473 8228 7049
3474 822  621 
3475 3799 956 
3476 9004 3879
3477 9656 7888
3478 1144 325 
3479 7111 440 
3480 7946 178 
3481 3920 6428
3482 8883 6383
3483 6438 674 
3484 9137 825 
3485 7565 840 
3486 2003 4963
3487 2192 3449
3488 2307 5523
3489 8942 1155
3490 9190 5306
3491 4051 8020
3492 4581 3165
3493 5033 5113
3494 6526 2674
3495 2742 7299
3496 3760 7148
3497 7963 6939
3498 1828 742 
3499 8046 3941
3500 5648 2762
3501 2656 654 
3502 3101 7775
3503 215  7881
3504 9674 5045
3505 4986 4906
3506 1403 7135
3507 6557 7355
3508 2272 8891
3509 2080 5152
3510 7746 3571
3511 586  5508
3512 7335 3098
3513 5534 2766
3514 8886 4187
3515 4072 2082
3516 3153 2976
3517 7306 6929
3518 9232 1469
3519 9078 6703
3520 598  9189
3521 5924 6832
3522 4084 3584
3523 5804 5848
3524 6017 6376
3525 4509 2711
3526 5701 8878
3527 57   9595
3528 9403 1104
3529 8229 8987
3530 8672 1662
3531 5160 7034
3532 2108 4339
3533 4148 7278
3534 8024 9673
3535 9347 2840
3536 304  8561
3537 7537 7429
3538 845  7074
3539 2357 239 
3540 3134 3949
3541 9698 2002
3542 7051 8676
3543 5400 5158
3544 825  1464
3545 9061 6631
3546 4604 9046
3547 1939 9925
3548 5642 47  
3549 1697 6501
3550 8848 2369
3551 2832 2805
3552 3556 7224
3553 2090 544 
3554 3854 1204
3555 1294 5922
3556 8796 6572
3557 7095 9683
3558 7798 4728
3559 2114 4981
3560 9959 690 
3561 1243 4173
3562 1527 110 
3563 8542 1439
3564 3333 5338
3565 7555 6547
3566 6948 5016
3567 5686 5350
3568 5662 8766
3569 8036 4404
3570 2374 8794
3571 6821 6429
3572 865  2036
3573 8903 1335
3574 1720 4521
3575 7781 3081
3576 4816 4710
3577 7519 4693
3578 3968 9679
3579 5893 7921
3580 5585 960 
3581 2052 5316
3582 2651 1433
3583 8103 7897
3584 8200 4030
3585 1228 6468
3586 2769 9270
3587 1045 6367
3588 2504 4711
3589 4254 8478
3590 6226 5151
3591 6604 6794
3592 6336 7658
3593 8611 6116
3594 5546 1257
3595 8936 2873
3596 4819 767 
3597 9176 1246
3598 4149 3983
3599 9349 8485
3600 5494 7894
3601 9182 3651
3602 9902 3123
3603 5974 4241
3604 5061 1831
3605 9310 5367
3606 6110 1399
3607 304  9212
3608 6797 3014
3609 8014 4780
3610 111  4491
3611 9532 5442
3612 488  1011
3613 9877 9829
3614 8799 1972
3615 2856 7451
3616 8029 5370
3617 9981 8389
3618 1674 3106
3619 1069 4780
3620 7251 6332
3621 8061 4093
3622 4971 3010
3623 8757 6615
3624 1858 8564
3625 8193 2724
3626 3118 2630
3627 6095 7883
3628 9700 2042
3629 7237 8512
3630 2532 4191
3631 3632 7815
3632 3040 6070
3633 9746 9357
3634 5917 7047
3635 3036 2494
3636 3093 9856
3637 8238 1854
3638 5932 8955
3639 4867 8256
3640 9587 7195
3641 902  4224
3642 2931 7416
3643 8195 9   
3644 5559 9408
3645 5912 1485
3646 5433 1953
3647 9823 5474
3648 715  5433
3649 903  6749
3650 489  2918
3651 7770 3609
3652 5914 4469
3653 9366 962 
3654 1235 3635
3655 5968 9695
3656 8343 8694
3657 824  3824
3658 444  8873
3659 518  7264
3660 3666 1998
3661 4934 4926
3662 2545 4158
3663 3160 7438
3664 7708 7862
3665 2620 4791
3666 6516 3262
3667 1059 4134
3668 9245 4035
3669 8933 2747
3670 2754 8632
3671 6096 8824
3672 6387 1534
3673 4820 4688
3674 2979 239 
3675 1520 9904
3676 5246 6223
3677 1563 7512
3678 7131 3628
3679 7683 5387
3680 4337 7393
3681 5468 1667
3682 4165 7086
3683 2578 9191
3684 8338 4349
3685 4979 9250
3686 4868 89  
3687 7840 1520
3688 1150 2309
3689 860  7200
3690 4932 7766
3691 6947 7015
3692 473  8264
3693 4238 3394
3694 1484 1686
3695 8865 7924
3696 2525 9381
3697 8514 8575
3698 4883 3514
3699 7663 6718
3700 6794 3053
3701 57   9433
3702 7118 6118
3703 6264 7417
3704 9435 7687
3705 7980 82  
3706 5174 2674
3707 4600 2306
3708 7388 4571
3709 3440 8692
3710 9024 8004
3711 1907 2317
3712 7791 9230
3713 6552 5940
3714 6133 4467
3715 42   8612
3716 5541 8939
3717 1967 6371
3718 9092 7729
3719 8420 2734
3720 8787 5998
3721 2509 7717
3722 3725 5338
3723 6929 9923
3724 1908 6729
3725 4503 9696
3726 3860 2195
3727 7707 2370
3728 8433 6075
3729 9443 5764
3730 3093 1255
3731 7600 39  
3732 4754 7979
3733 725  2521
3734 1623 5662
3735 2709 8276
3736 9472 2005
3737 4181 1717
3738 5926 9405
3739 1829 4491
3740 8756 5782
3741 5248 1946
3742 188  1207
3743 2451 2426
3744 724  6399
3745 5623 6908
3746 8703 9586
3747 8148 6655
3748 1811 5008
3749 4966 5940
3750 183  4494
3751 9243 4682
3752 4844 4529
3753 2710 8840
3754 3150 9813
3755 2054 8785
3756 7484 2861
3757 7191 3597
3758 9416 7333
3759 2654 5613
3760 7742 2950
3761 5099 9456
3762 6187 6704
3763 8420 8231
3764 7521 7459
3765 9975 6085
3766 2818 3654
3767 8038 5917
3768 6900 3032
3769 2178 7486
3770 5142 1043
3771 8951 1460
3772 4908 4868
3773 4281 1838
3774 762  939 
3775 3868 8332
3776 5277 1210
3777 2803 308 
3778 9884 8467
3779 7058 5995
3780 1293 5611
3781 6179 9947
3782 1070 273 
3783 5056 5216
3784 1195 4036
3785 8984 9874
3786 6380 9204
3787 9009 9735
3788 2556 1117
3789 8577 7952
3790 9727 8869
3791 983  9410
3792 1690 8597
3793 9583 4201
3794 3100 4775
3795 6504 5317
3796 2057 7737
3797 2347 7955
3798 6792 2959
3799 9118 2380
3800 4042 3493
3801 1743 7181
3802 8198 3431
3803 9787 4827
3804 2287 5945
3805 6248 5772
3806 883  3933
3807 8781 3588
3808 8881 9182
3809 2447 2399
3810 1588 8011
3811 9136 8610
3812 3070 8310
3813 1255 5203
3814 5915 2410
3815 6005 3423
3816 8048 9883
3817 5001 177 
3818 1711 9234
3819 9885 665 
3820 6676 8868
3821 8639 7669
3822 8493 7029
3823 4837 4328
3824 8059 8067
3825 9721 9763
3826 3868 2098
3827 3680 6299
3828 2294 4375
3829 3943 7354
3830 9969 2695
3831 2989 6115
3832 7906 9864
3833 7833 152 
3834 7516 9308
3835 6737 5982
3836 3930 470 
3837 4917 4224
3838 3964 2312
3839 93   2219
3840 5131 5917
3841 5694 5374
3842 8190 1028
3843 655  9582
3844 4384 9308
3845 6048 4150
3846 1332 7116
3847 5333 4719
3848 9101 3416
3849 6496 9999
3850 6719 210 
3851 9044 9525
3852 3848 9035
3853 2983 472 
3854 7134 3656
3855 4336 5692
3856 6266 7135
3857 8480 6918
3858 1236 2208
3859 5592 4577
3860 9595 7039
3861 4667 1855
3862 7857 5819
3863 4782 5300
3864 835  3153
3865 1486 6557
3866 5832 1989
3867 6151 6548
3868 3286 1827
3869 558  2890
3870 4785 9702
3871 3346 5494
3872 6172 4272
3873 9454 5907
3874 2866 15  
3875 3233 6512
3876 339  1329
3877 2335 8400
3878 5807 9056
3879 7514 1385
3880 2668 2483
3881 2559 9379
3882 4972 4498
3883 1440 4240
3884 9017 8987
3885 3156 1971
3886 183  26  
3887 8769 2780
3888 8577 9085
3889 8401 6103
3890 8935 5233
3891 3389 3792
3892 6222 438 
3893 7697 239 
3894 9731 3791
3895 7814 7369
3896 6751 4189
3897 6279 9376
3898 5671 8315
3899 5351 6971
3900 5094 3658
3901 1977 7571
3902 8316 4380
3903 7964 8117
3904 7861 9534
3905 9657 2944
3906 8164 8090
3907 3960 621 
3908 8204 894 
3909 8198 4653
3910 37   7482
3911 4055 1676
3912 5065 3858
3913 1211 1067
3914 3034 4102
3915 3012 1000
3916 9438 5560
3917 3874 3652
3918 7306 7522
3919 7874 816 
3920 8077 1100
3921 759  7120
3922 9742 7312
3923 5486 6020
3924 6360 848 
3925 6147 5630
3926 9481 3420
3927 2498 6295
3928 7001 3328
3929 9814 9810
3930 7423 3928
3931 8942 3712
3932 3459 3014
3933 8774 8817
3934 5673 6790
3935 7339 5203
3936 8517 8168
3937 6555 3471
3938 6959 383 
3939 1273 5658
3940 2332 2433
3941 1791 6455
3942 712  4722
3943 2866 9618
3944 4487 2108
3945 8961 3370
3946 7624 4091
3947 1094 8346
3948 6119 8628
3949 4555 1287
3950 2390 5816
3951 7164 574 
3952 6215 9613
3953 8310 7695
3954 612  1700
3955 6123 9882
3956 5263 7997
3957 3886 8832
3958 2392 5591
3959 3668 8101
3960 1009 5394
3961 1143 5267
3962 5895 1237
3963 1607 5057
3964 821  598 
3965 845  3952
3966 6511 7196
3967 7824 9275
3968 8789 324 
3969 2598 2722
3970 8724 4295
3971 874  532 
3972 5331 8704
3973 1597 1742
3974 1765 7415
3975 2726 1530
3976 9035 972 
3977 1868 7267
3978 1672 8496
3979 8517 5790
3980 7821 6145
3981 4854 5940
3982 815  7084
3983 5309 893 
3984 9442 4329
3985 2473 4591
3986 6789 1574
3987 8077 782 
3988 8629 4790
3989 4641 6124
3990 634  3171
3991 9977 5586
3992 9829 915 
3993 1375 8844
3994 3979 800 
3995 5042 8445
3996 5501 3043
3997 2241 7434
3998 1260 9693
3999 5155 5914
4000 9888 7688
4001 3596 9833
4002 5097 1613
4003 3922 7203
4004 5547 8062
4005 9958 4006
4006 6836 2968
4007 7099 6901
4008 9685 8599
4009 2567 5586
4010 7788 3480
4011 6829 848 
4012 6831 9533
4013 4335 5479
4014 1534 6896
4015 3994 7857
4016 9574 1243
4017 6307 231 
4018 7201 7933
4019 5768 1008
4020 7149 2783
4021 2894 4520
4022 6530 8273
4023 7083 8018
4024 7792 7252
4025 3051 9936
4026 5081 4656
4027 2255 7469
4028 4517 9386
4029 2074 6548
4030 1407 1842
4031 1139 8061
4032 3929 9279
4033 750  9023
4034 1123 9642
4035 6001 6950
4036 7352 785 
4037 7728 9628
4038 5893 7961
4039 4062 9745
4040 1209 3227
4041 8838 7607
4042 5516 5828
4043 9760 7140
4044 2650 3082
4045 2418 8597
4046 3188 7249
4047 7870 8440
4048 6303 8448
4049 7733 4946
4050 374  6371
4051 9170 640 
4052 3983 1558
4053 9570 4774
4054 3103 6045
4055 9961 4897
4056 8421 912 
4057 2331 5333
4058 3371 9544
4059 8776 9014
4060 2322 2617
4061 1582 5712
4062 2425 2727
4063 3427 7157
4064 1190 7043
4065 9346 7818
4066 7290 7112
4067 2053 2063
4068 4424 8626
4069 5767 362 
4070 9969 4674
4071 544  9801
4072 7988 18  
4073 5016 267 
4074 4337 3515
4075 4279 3047
4076 6439 3234
4077 9305 4060
4078 5683 6293
4079 137  6029
4080 386  5393
4081 8967 1359
4082 761  287 
4083 3260 2826
4084 78   8153
4085 2535 8493
4086 473  4965
4087 7887 7423
4088 7944 4767
4089 7575 4361
4090 9002 4460
4091 4831 5142
4092 4451 8521
4093 8368 4949
4094 4526 4032
4095 7544 4259
4096 3410 5586
4097 3040 4958
4098 9244 1895
4099 826  2512
4100 2653 1306
4101 2294 6559
4102 7025 1741
4103 9441 6111
4104 9593 4810
4105 3202 3997
4106 5803 4554
4107 7760 8639
4108 1181 777 
4109 7471 6549
4110 9576 821 
4111 810  6425
4112 9467 6800
4113 7821 3336
4114 4368 4340
4115 3200 3620
4116 4395 9359
4117 6013 6639
4118 7976 4484
4119 6954 7682
4120 1003 2896
4121 1208 3773
4122 6053 7781
4123 4545 9808
4124 7942 1729
4125 6624 4205
4126 1165 5701
4127 5748 8928
4128 5819 624 
4129 5643 1620
4130 4961 572 
4131 7112 8134
4132 9693 8868
4133 9617 2491
4134 8485 9981
4135 5800 3598
4136 3171 4975
4137 7952 4823
4138 8507 6994
4139 4687 8693
4140 2702 2855
4141 9244 4969
4142 1041 6617
4143 5488 1241
4144 1458 757 
4145 6488 7466
4146 1984 1019
4147 9225 4316
4148 7164 7138
4149 4658 8732
4150 3443 7501
4151 1466 7018
4152 8315 4319
4153 7647 9086
4154 9609 9176
4155 3725 3882
4156 6322 3124
4157 7691 7302
4158 2069 4819
4159 7174 1040
4160 8812 2467
4161 7057 4165
4162 1851 8276
4163 1618 1059
4164 5595 5717
4165 9020 8950
4166 8687 1500
4167 2155 9719
4168 9851 6087
4169 8471 8910
4170 3184 1589
4171 1321 5195
4172 9828 2230
4173 3064 5068
4174 6845 2755
4175 7415 3180
4176 2051 7472
4177 6741 80  
4178 2464 5725
4179 8949 3949
4180 6502 2021
4181 7779 3557
4182 8433 2067
4183 9063 1583
4184 9899 1855
4185 8769 5869
4186 3553 1070
4187 1166 5670
4188 3445 7070
4189 8695 7572
4190 419  9215
4191 5293 6461
4192 6659 9395
4193 2064 1689
4194 8401 1840
4195 8643 817 
4196 4352 3613
4197 8128 5890
4198 2724 2560
4199 292  1117
4200 2274 9392
4201 5726 8513
4202 5979 1125
4203 6020 9449
4204 6129 8457
4205 4499 5841
4206 6889 5839
4207 8542 1998
4208 6795 2367
4209 6893 4410
4210 3314 8548
4211 8179 7246
4212 13   123 
4213 2000 609 
4214 8135 9828
4215 2392 4162
4216 1989 2208
4217 2787 2589
4218 9028 4195
4219 4508 858 
4220 851  7658
4221 2824 2864
4222 5985 458 
4223 6133 2003
4224 6272 7388
4225 3866 312 
4226 8658 3629
4227 6312 2851
4228 9620 7862
4229 8271 3607
4230 5511 4422
4231 388  657 
4232 3282 2269
4233 3692 1962
4234 9221 1276
4235 1929 1669
4236 5825 5598
4237 68   4318
4238 7679 1566
4239 2972 8627
4240 3774 6491
4241 9785 9021
4242 346  9072
4243 6107 4097
4244 2395 3969
4245 4025 6289
4246 5220 582 
4247 7619 3894
4248 7050 1639
4249 5588 8757
4250 4501 8860
4251 4622 8792
4252 7010 6634
4253 350  8918
4254 7211 567 
4255 9481 9680
4256 6237 6584
4257 6158 4398
4258 8248 5900
4259 9527 667 
4260 5631 5877
4261 6991 4826
4262 2732 8200
4263 6760 7449
4264 4473 413 
4265 46   7185
4266 6122 7144
4267 1208 5053
4268 75   3748
4269 283  7054
4270 2730 4497
4271 8354 4201
4272 2760 9878
4273 1406 8724
4274 7364 5965
4275 2105 7904
4276 2802 8189
4277 5571 6332
4278 988  3456
4279 3894 9404
4280 1041 752 
4281 860  4908
4282 3992 341 
4283 4549 9949
4284 6236 7622
4285 2635 8691
4286 5862 2084
4287 8901 5610
4288 7606 3633
4289 6435 6804
4290 5834 8602
4291 6769 3226
4292 2925 8095
4293 2230 4223
4294 9131 8563
4295 595  958 
4296 957  7227
4297 5896 1102
4298 2425 7005
4299 8293 9247
4300 74   6699
4301 5883 8564
4302 437  1206
4303 2995 4442
4304 8581 5127
4305 4463 4511
4306 156  8163
4307 2258 740 
4308 6855 4830
4309 6774 370 
4310 217  2516
4311 5490 3499
4312 8457 5798
4313 4245 7507
4314 1587 8360
4315 7059 63  
4316 133  8772
4317 2462 6465
4318 1037 9249
4319 6330 1082
4320 5829 8556
4321 8230 9845
4322 2447 6986
4323 9445 3406
4324 8420 7734
4325 6779 2248
4326 1078 1500
4327 8774 239 
4328 3008 8189
4329 1352 2148
4330 7725 3319
4331 2827 9003
4332 1549 9678
4333 7505 6708
4334 3046 5406
4335 6154 8850
4336 6691 8114
4337 9919 8717
4338 6137 2208
4339 315  3851
4340 1471 2829
4341 3576 2593
4342 8136 4934
4343 7405 5726
4344 9370 2278
4345 8497 5486
4346 7340 6632
4347 7775 5756
4348 8011 2471
4349 3484 4837
4350 9235 434 
4351 7075 6988
4352 1208 1682
4353 2405 3600
4354 6943 295 
4355 8352 1114
4356 7345 4413
4357 9490 5777
4358 2383 1866
4359 6015 4940
4360 1824 7057
4361 4552 8286
4362 8269 8039
4363 3962 2366
4364 4330 8729
4365 6410 3919
4366 2826 6039
4367 3884 6154
4368 8915 3178
4369 7837 4152
4370 3946 2761
4371 8581 6659
4372 6984 1033
4373 3289 1213
4374 4982 3833
4375 2687 477 
4376 4264 737 
4377 5071 8355
4378 3190 81  
4379 1226 519 
4380 8270 3399
4381 6021 3064
4382 6807 6324
4383 614  1588
4384 6464 4107
4385 7405 5031
4386 8348 6388
4387 8116 2214
4388 8786 5045
4389 1806 5858
4390 8454 2225
4391 5978 396 
4392 7961 7976
4393 9406 1030
4394 8203 5520
4395 6898 2336
4396 9990 7283
4397 2101 2683
4398 2247 5761
4399 7571 5552
4400 2929 4032
4401 9001 4195
4402 8813 890 
4403 5450 5938
4404 1713 9432
4405 6109 3458
4406 2483 4406
4407 4620 3511
4408 1116 1740
4409 5315 2638
4410 5415 5123
4411 1791 5426
4412 7819 2632
4413 2630 6588
4414 6165 7100
4415 978  1093
4416 7471 7008
4417 1721 9433
4418 1379 5589
4419 5105 9205
4420 1741 8636
4421 2714 6590
4422 1687 9749
4423 1541 1205
4424 5826 2841
4425 9834 8988
4426 2438 9765
4427 9518 2213
4428 7925 5678
4429 3955 8607
4430 6239 75  
4431 7073 1316
4432 6965 5614
4433 9218 9554
4434 2416 8553
4435 8964 1874
4436 5075 8679
4437 7036 924 
4438 6361 1459
4439 9327 7423
4440 4424 7156
4441 761  8717
4442 4858 3461
4443 564  6698
4444 2865 7926
4445 8849 3673
4446 1711 7753
4447 1545 371 
4448 1293 5248
4449 1759 7900
4450 9079 6718
4451 349  1063
4452 8724 3276
4453 2690 5788
4454 924  779 
4455 161  1787
4456 8767 6000
4457 486  8639
4458 6489 6380
4459 441  5836
4460 3084 9957
4461 2716 9154
4462 5756 4686
4463 4353 1213
4464 2651 226 
4465 5353 3640
4466 267  499 
4467 2041 6807
4468 5888 7265
4469 6910 58  
4470 8855 3615
4471 3277 4557
4472 7892 9464
4473 9002 9159
4474 3514 4436
4475 3417 18  
4476 6922 2054
4477 6041 7129
4478 8931 7477
4479 7376 4257
4480 5270 3209
4481 3375 9704
4482 7482 9835
4483 1890 7769
4484 1503 2270
4485 1112 8768
4486 6401 289 
4487 8135 3010
4488 1431 6009
4489 4792 7348
4490 647  6883
4491 4012 623 
4492 6313 5813
4493 2506 6374
4494 1658 3491
4495 6950 320 
4496 5779 2395
4497 3541 1982
4498 1200 7158
4499 9511 4132
4500 3458 8355
4501 4943 999 
4502 4905 3076
4503 6370 3490
4504 4279 2956
4505 8664 1634
4506 428  5495
4507 6149 5751
4508 203  9241
4509 9655 6919
4510 1875 52  
4511 717  2465
4512 1301 4079
4513 6165 9472
4514 6032 9502
4515 5764 5681
4516 4576 781 
4517 7604 7499
4518 3582 5366
4519 1027 6824
4520 6599 9982
4521 5748 156 
4522 3668 4487
4523 443  299 
4524 6026 535 
4525 885  7116
4526 84   559 
4527 3216 5080
4528 5332 9595
4529 8918 3061
4530 3738 2393
4531 7691 3975
4532 7648 3483
4533 5798 274 
4534 2041 1834
4535 5451 1579
4536 6192 4351
4537 3442 1752
4538 126  3433
4539 2224 6888
4540 4743 2061
4541 5521 5821
4542 3851 1750
4543 5646 813 
4544 4074 6159
4545 9607 5971
4546 1183 4310
4547 5    2421
4548 2116 5238
4549 957  25  
4550 8675 9105
4551 1298 2315
4552 8512 2454
4553 1598 271 
4554 1299 6675
4555 580  4774
4556 8649 8885
4557 9821 960 
4558 5717 2019
4559 1232 5084
4560 5702 8280
4561 5958 8493
4562 2464 5129
4563 5920 6462
4564 1028 6815
4565 4148 2884
4566 9330 5323
4567 7887 270 
4568 9554 2698
4569 6783 6045
4570 2374 3271
4571 1269 4949
4572 831  4371
4573 3625 3222
4574 6364 7585
4575 9669 8384
4576 7234 2725
4577 8195 5828
4578 8241 4879
4579 2856 4803
4580 5478 3430
4581 6456 7857
4582 2050 9445
4583 3128 5712
4584 9253 530 
4585 1374 1634
4586 1309 4288
4587 604  520 
4588 1267 376 
4589 6954 2278
4590 51   7970
4591 1657 9339
4592 5319 528 
4593 6699 9755
4594 2612 5533
4595 5086 1426
4596 8893 7194
4597 9798 7024
4598 3291 6972
4599 8017 7439
4600 6934 5502
4601 9903 6235
4602 2496 4859
4603 3085 5300
4604 5434 1562
4605 6308 7025
4606 4721 8897
4607 4488 7517
4608 1986 1625
4609 7788 5776
4610 4157 7022
4611 1326 3220
4612 7717 4764
4613 8261 2723
4614 6316 3522
4615 8338 6316
4616 6518 8685
4617 3839 4807
4618 2851 4298
4619 547  7169
4620 3403 4489
4621 3720 8170
4622 7279 2282
4623 8452 7546
4624 2291 5538
4625 912  2240
4626 5115 5770
4627 59   4382
4628 7267 4445
4629 783  9038
4630 3574 8447
4631 7666 576 
4632 9597 6791
4633 7333 3871
4634 1430 5846
4635 4704 9497
4636 686  2308
4637 2074 7126
4638 4456 3998
4639 1619 9175
4640 5341 1048
4641 560  7289
4642 3068 9690
4643 2645 7014
4644 4791 2029
4645 7791 9584
4646 4189 3717
4647 2133 7057
4648 9660 6872
4649 1583 1164
4650 2271 5237
4651 3881 5979
4652 139  4849
4653 408  1906
4654 519  9199
4655 4695 2673
4656 9966 8062
4657 5183 6825
4658 7630 5446
4659 829  4246
4660 555  6903
4661 4982 425 
4662 2937 2555
4663 6449 8310
4664 7174 12  
4665 1155 4378
4666 296  1936
4667 3156 4497
4668 2933 5549
4669 9154 8401
4670 6041 7721
4671 1695 4134
4672 4758 2626
4673 8363 4913
4674 1008 68  
4675 9017 1093
4676 626  1381
4677 4945 7232
4678 5197 1722
4679 1013 9858
4680 1303 9206
4681 9538 7338
4682 6946 4279
4683 4415 2906
4684 8690 6726
4685 6430 6512
4686 7337 6852
4687 1244 1179
4688 4097 3146
4689 3386 5389
4690 8477 7279
4691 807  9064
4692 9325 7851
4693 6810 7855
4694 2863 17  
4695 504  9843
4696 6920 1784
4697 1661 7954
4698 2765 4705
4699 9438 2741
4700 944  2596
4701 9885 2026
4702 2925 4880
4703 3132 7055
4704 7253 8869
4705 4384 6793
4706 2545 6893
4707 4617 8243
4708 8579 5905
4709 9144 8703
4710 6553 6492
4711 3130 5113
4712 7335 899 
4713 1506 359 
4714 9906 1721
4715 5733 395 
4716 1151 7090
4717 2632 790 
4718 2871 3933
4719 8827 2668
4720 6161 6146
4721 7439 7947
4722 8088 9358
4723 3118 428 
4724 888  1132
4725 9499 6825
4726 3689 3033
4727 9961 4268
4728 7466 4962
4729 6071 7652
4730 7550 1115
4731 7183 1302
4732 5521 7045
4733 714  8357
4734 8677 7440
4735 9129 8463
4736 2560 6937
4737 5755 9318
4738 7660 3347
4739 3874 5153
4740 2811 7047
4741 7597 2876
4742 857  8224
4743 2322 9533
4744 4890 2242
4745 7569 7671
4746 3198 2131
4747 3935 5150
4748 4021 583 
4749 8838 8431
4750 7840 9307
4751 2940 9860
4752 609  7350
4753 9936 522 
4754 599  3562
4755 6099 3580
4756 9854 4073
4757 9098 4141
4758 5893 2130
4759 8131 5739
4760 2171 5420
4761 6544 8892
4762 5164 8005
4763 2330 3388
4764 4953 6702
4765 3937 9929
4766 1089 5478
4767 7827 1610
4768 3468 5980
4769 4668 5926
4770 5395 2539
4771 3760 6668
4772 9226 4063
4773 3646 7457
4774 4851 6332
4775 5101 8045
4776 7768 8434
4777 332  6496
4778 1843 6416
4779 2076 7358
4780 1945 9523
4781 5832 1216
4782 7986 3172
4783 5483 6441
4784 4363 2237
4785 4785 1941
4786 3759 6987
4787 9293 6130
4788 4547 1638
4789 7242 3607
4790 2499 327 
4791 9136 1400
4792 3072 5346
4793 5634 6353
4794 4828 4632
4795 190  5057
4796 4120 6376
4797 8834 1628
4798 848  996 
4799 2765 4366
4800 7911 411 
4801 4413 5589
4802 943  9162
4803 4868 3290
4804 9178 8197
4805 6876 6644
4806 255  9112
4807 379  7272
4808 3943 1724
4809 1503 3043
4810 2663 9949
4811 8254 8312
4812 3920 9383
4813 8095 8252
4814 1027 2767
4815 6062 587 
4816 2763 8881
4817 1632 2511
4818 4810 4010
4819 1930 9383
4820 6411 9663
4821 662  3674
4822 8570 4163
4823 937  3273
4824 8923 4486
4825 5292 9701
4826 6596 5242
4827 8140 6974
4828 1932 5118
4829 9880 1249
4830 9550 66  
4831 5481 6758
4832 8232 3727
4833 9236 4525
4834 2907 8206
4835 8784 4191
4836 914  1009
4837 574  3435
4838 8852 3484
4839 9749 6282
4840 1688 5293
4841 2294 9448
4842 6092 7933
4843 2689 3371
4844 659  747 
4845 3103 1569
4846 5315 7800
4847 4828 8336
4848 4812 762 
4849 3943 5656
4850 7731 2331
4851 3746 8033
4852 9707 8828
4853 353  4178
4854 7683 6812
4855 5145 5582
4856 8837 32  
4857 7226 3696
4858 8726 2593
4859 7896 949 
4860 7319 7815
4861 6902 288 
4862 3468 8104
4863 9526 9721
4864 6595 7609
4865 6751 3463
4866 8741 6987
4867 1126 8540
4868 4451 2090
4869 1934 9362
4870 859  5004
4871 5862 6656
4872 8418 8001
4873 4613 1976
4874 5109 2462
4875 8422 1621
4876 9073 3838
4877 7300 5883
4878 7284 1153
4879 2351 8394
4880 1127 9031
4881 7631 3721
4882 5998 9955
4883 1450 8224
4884 9815 2459
4885 4387 5521
4886 2491 3836
4887 2858 2780
4888 4363 9139
4889 1735 8681
4890 2278 7273
4891 8970 1086
4892 6982 9185
4893 843  1955
4894 1381 9236
4895 3801 5147
4896 8978 3923
4897 8635 7006
4898 4435 4429
4899 490  2106
4900 9821 9976
4901 5333 8556
4902 1268 9744
4903 752  6956
4904 6934 2004
4905 6631 8948
4906 4258 9350
4907 8441 7755
4908 2592 4028
4909 8922 2753
4910 216  2492
4911 6890 6239
4912 6149 4830
4913 3780 5711
4914 9939 7153
4915 6570 141 
4916 462  3128
4917 2201 5311
4918 2695 9401
4919 7461 8942
4920 1315 5845
4921 7407 4353
4922 4270 8410
4923 3176 9448
4924 9550 2991
4925 4628 7091
4926 1802 4688
4927 9767 9238
4928 3258 70  
4929 1299 3380
4930 568  2858
4931 7386 1529
4932 7224 7400
4933 3139 1078
4934 6544 8516
4935 3951 6250
4936 1381 9356
4937 4990 9026
4938 5605 3885
4939 6399 8122
4940 3125 6787
4941 6132 6400
4942 7212 5029
4943 8550 793 
4944 2843 9739
4945 6650 1287
4946 6400 738 
4947 1316 2272
4948 3420 9599
4949 753  7657
4950 243  3376
4951 976  8925
4952 5323 8963
4953 9082 6748
4954 5895 94  
4955 3889 5590
4956 5169 3225
4957 3923 1398
4958 7150 4270
4959 4394 1178
4960 407  2234
4961 3122 1182
4962 3796 7793
4963 3100 1286
4964 9909 8724
4965 2371 9068
4966 5222 4070
4967 8479 1107
4968 835  3543
4969 9937 7074
4970 7889 3896
4971 7345 7715
4972 7006 8351
4973 8766 9328
4974 7650 7362
4975 618  8256
4976 1314 8312
4977 6533 8535
4978 5394 7318
4979 3193 8055
4980 9970 6391
4981 7756 680 
4982 174  4106
4983 8523 3665
4984 8649 750 
4985 8943 3417
4986 6335 4297
4987 8189 1151
4988 5221 754 
4989 2063 8255
4990 504  8602
4991 8204 8920
4992 6356 829 
4993 7167 5228
4994 6293 2760
4995 2766 7930
4996 2149 5172
4997 2966 6533
4998 8766 638 
4999 4255 2019
5000 3970 8046
5001 8709 5341
DEMAND_SECTION
1    0   
2    4   
3    2   
4    3   
5    73  
6    3   
7    9   
8    6   
9    10  
10   9   
11   6   
12   9   
13   6   
14   2   
15   10  
16   7   
17   1   
18   3   
19   4   
20   6   
21   4   
22   5   
23   5   
24   9   
25   4   
26   5   
27   2   
28   64  
29   9   
30   8   
31   7   
32   88  
33   6   
34   7   
35   2   
36   4   
37   10  
38   6   
39   2   
40   3   
41   5   
42   6   
43   4   
44   7   
45   94  
46   53  
47   1   
48   10  
49   6   
50   9   
51   76  
52   98  
53   10  
54   1   
55   10  
56   8   
57   7   
58   7   
59   6   
60   10  
61   4   
62   4   
63   1   
64   5   
65   4   
66   9   
67   3   
68   74  
69   72  
70   5   
71   8   
72   3   
73   8   
74   9   
75   10  
76   1   
77   10  
78   3   
79   9   
80   4   
81   8   
82   8   
83   2   
84   4   
85   7   
86   6   
87   9   
88   3   
89   5   
90   50  
91   6   
92   50  
93   5   
94   7   
95   72  
96   7   
97   7   
98   6   
99   7   
100  5   
101  4   
102  82  
103  80  
104  6   
105  3   
106  95  
107  7   
108  5   
109  89  
110  5   
111  10  
112  65  
113  6   
114  7   
115  3   
116  1   
117  7   
118  6   
119  9   
120  4   
121  59  
122  65  
123  8   
124  6   
125  1   
126  7   
127  72  
128  10  
129  3   
130  6   
131  8   
132  4   
133  10  
134  6   
135  7   
136  2   
137  55  
138  73  
139  4   
140  95  
141  82  
142  5   
143  7   
144  2   
145  3   
146  5   
147  65  
148  9   
149  3   
150  95  
151  10  
152  9   
153  9   
154  2   
155  2   
156  94  
157  1   
158  93  
159  1   
160  1   
161  66  
162  1   
163  7   
164  92  
165  1   
166  8   
167  6   
168  10  
169  3   
170  100 
171  7   
172  95  
173  10  
174  8   
175  7   
176  10  
177  6   
178  3   
179  6   
180  92  
181  53  
182  8   
183  2   
184  3   
185  10  
186  7   
187  10  
188  5   
189  7   
190  61  
191  76  
192  9   
193  8   
194  4   
195  9   
196  5   
197  10  
198  6   
199  77  
200  64  
201  9   
202  2   
203  1   
204  3   
205  6   
206  6   
207  4   
208  7   
209  7   
210  8   
211  1   
212  6   
213  1   
214  61  
215  4   
216  3   
217  5   
218  6   
219  5   
220  7   
221  72  
222  7   
223  5   
224  5   
225  9   
226  8   
227  5   
228  97  
229  7   
230  2   
231  69  
232  9   
233  3   
234  7   
235  5   
236  9   
237  1   
238  4   
239  4   
240  7   
241  9   
242  4   
243  2   
244  91  
245  3   
246  10  
247  3   
248  3   
249  72  
250  1   
251  2   
252  8   
253  57  
254  7   
255  7   
256  10  
257  74  
258  92  
259  10  
260  4   
261  1   
262  2   
263  1   
264  100 
265  1   
266  10  
267  7   
268  7   
269  1   
270  8   
271  9   
272  8   
273  98  
274  1   
275  1   
276  9   
277  3   
278  86  
279  68  
280  10  
281  5   
282  4   
283  5   
284  85  
285  74  
286  9   
287  3   
288  2   
289  10  
290  3   
291  8   
292  7   
293  10  
294  7   
295  7   
296  1   
297  5   
298  4   
299  8   
300  9   
301  61  
302  10  
303  73  
304  3   
305  10  
306  3   
307  8   
308  63  
309  53  
310  1   
311  4   
312  69  
313  8   
314  3   
315  7   
316  4   
317  1   
318  10  
319  2   
320  2   
321  7   
322  91  
323  5   
324  6   
325  1   
326  9   
327  5   
328  5   
329  8   
330  2   
331  6   
332  2   
333  77  
334  3   
335  6   
336  9   
337  6   
338  10  
339  3   
340  75  
341  95  
342  8   
343  8   
344  2   
345  1   
346  74  
347  4   
348  9   
349  6   
350  3   
351  8   
352  3   
353  3   
354  7   
355  2   
356  4   
357  4   
358  3   
359  4   
360  52  
361  3   
362  1   
363  7   
364  6   
365  7   
366  3   
367  62  
368  5   
369  94  
370  74  
371  9   
372  89  
373  4   
374  9   
375  70  
376  8   
377  1   
378  3   
379  1   
380  1   
381  2   
382  10  
383  63  
384  2   
385  8   
386  94  
387  10  
388  8   
389  3   
390  5   
391  59  
392  6   
393  4   
394  2   
395  96  
396  5   
397  100 
398  1   
399  58  
400  69  
401  3   
402  8   
403  74  
404  4   
405  7   
406  94  
407  5   
408  80  
409  51  
410  8   
411  2   
412  8   
413  9   
414  3   
415  6   
416  6   
417  2   
418  4   
419  7   
420  1   
421  10  
422  4   
423  69  
424  2   
425  6   
426  100 
427  4   
428  10  
429  3   
430  4   
431  5   
432  52  
433  66  
434  5   
435  1   
436  95  
437  91  
438  8   
439  9   
440  2   
441  8   
442  8   
443  4   
444  2   
445  83  
446  10  
447  2   
448  8   
449  8   
450  92  
451  50  
452  85  
453  7   
454  1   
455  95  
456  5   
457  4   
458  59  
459  4   
460  6   
461  9   
462  2   
463  65  
464  6   
465  93  
466  85  
467  7   
468  2   
469  5   
470  90  
471  93  
472  2   
473  5   
474  10  
475  9   
476  55  
477  10  
478  3   
479  4   
480  7   
481  3   
482  4   
483  2   
484  2   
485  10  
486  1   
487  5   
488  3   
489  73  
490  5   
491  7   
492  65  
493  10  
494  4   
495  1   
496  5   
497  7   
498  95  
499  63  
500  2   
501  10  
502  5   
503  3   
504  2   
505  6   
506  10  
507  8   
508  8   
509  7   
510  7   
511  10  
512  3   
513  6   
514  4   
515  3   
516  53  
517  82  
518  71  
519  5   
520  10  
521  5   
522  6   
523  9   
524  9   
525  4   
526  1   
527  5   
528  9   
529  10  
530  4   
531  76  
532  99  
533  1   
534  1   
535  9   
536  80  
537  54  
538  2   
539  1   
540  9   
541  91  
542  4   
543  5   
544  10  
545  5   
546  9   
547  4   
548  10  
549  10  
550  4   
551  6   
552  4   
553  1   
554  6   
555  6   
556  2   
557  7   
558  6   
559  5   
560  1   
561  55  
562  3   
563  10  
564  8   
565  8   
566  4   
567  1   
568  9   
569  9   
570  91  
571  51  
572  8   
573  6   
574  1   
575  9   
576  7   
577  8   
578  72  
579  1   
580  8   
581  1   
582  10  
583  6   
584  8   
585  10  
586  2   
587  93  
588  10  
589  4   
590  3   
591  10  
592  4   
593  2   
594  10  
595  10  
596  8   
597  3   
598  7   
599  1   
600  74  
601  3   
602  4   
603  88  
604  82  
605  57  
606  4   
607  94  
608  2   
609  4   
610  6   
611  8   
612  2   
613  10  
614  10  
615  10  
616  54  
617  8   
618  10  
619  4   
620  1   
621  8   
622  7   
623  6   
624  9   
625  1   
626  3   
627  8   
628  7   
629  9   
630  7   
631  3   
632  2   
633  70  
634  8   
635  4   
636  3   
637  7   
638  6   
639  9   
640  7   
641  8   
642  92  
643  5   
644  9   
645  6   
646  2   
647  2   
648  7   
649  8   
650  73  
651  1   
652  4   
653  2   
654  6   
655  5   
656  7   
657  58  
658  10  
659  54  
660  2   
661  1   
662  7   
663  6   
664  70  
665  9   
666  1   
667  100 
668  10  
669  3   
670  6   
671  6   
672  72  
673  62  
674  10  
675  6   
676  4   
677  3   
678  4   
679  1   
680  2   
681  9   
682  7   
683  8   
684  7   
685  9   
686  1   
687  3   
688  65  
689  9   
690  7   
691  2   
692  4   
693  71  
694  1   
695  1   
696  8   
697  8   
698  7   
699  7   
700  6   
701  5   
702  2   
703  8   
704  6   
705  10  
706  9   
707  8   
708  4   
709  7   
710  5   
711  4   
712  10  
713  8   
714  63  
715  5   
716  3   
717  9   
718  8   
719  1   
720  3   
721  1   
722  2   
723  5   
724  4   
725  80  
726  3   
727  7   
728  85  
729  5   
730  8   
731  7   
732  87  
733  4   
734  4   
735  5   
736  5   
737  4   
738  6   
739  6   
740  4   
741  9   
742  1   
743  5   
744  10  
745  7   
746  83  
747  83  
748  79  
749  3   
750  2   
751  8   
752  8   
753  3   
754  10  
755  1   
756  6   
757  3   
758  4   
759  4   
760  5   
761  6   
762  8   
763  3   
764  1   
765  2   
766  70  
767  1   
768  6   
769  7   
770  9   
771  93  
772  84  
773  10  
774  6   
775  2   
776  4   
777  52  
778  5   
779  4   
780  3   
781  2   
782  76  
783  7   
784  55  
785  8   
786  4   
787  61  
788  3   
789  4   
790  5   
791  3   
792  8   
793  73  
794  5   
795  6   
796  8   
797  1   
798  5   
799  10  
800  5   
801  4   
802  3   
803  3   
804  7   
805  7   
806  10  
807  9   
808  8   
809  4   
810  1   
811  4   
812  3   
813  50  
814  65  
815  8   
816  95  
817  3   
818  10  
819  4   
820  5   
821  4   
822  5   
823  55  
824  1   
825  6   
826  2   
827  8   
828  5   
829  8   
830  5   
831  2   
832  6   
833  9   
834  8   
835  6   
836  1   
837  1   
838  5   
839  5   
840  10  
841  2   
842  10  
843  9   
844  2   
845  60  
846  4   
847  1   
848  5   
849  61  
850  3   
851  4   
852  10  
853  3   
854  2   
855  59  
856  4   
857  5   
858  7   
859  5   
860  2   
861  10  
862  1   
863  4   
864  2   
865  3   
866  7   
867  8   
868  1   
869  4   
870  4   
871  1   
872  8   
873  10  
874  9   
875  2   
876  6   
877  4   
878  73  
879  4   
880  7   
881  78  
882  60  
883  60  
884  6   
885  2   
886  7   
887  1   
888  3   
889  2   
890  5   
891  95  
892  7   
893  7   
894  3   
895  1   
896  52  
897  78  
898  3   
899  9   
900  4   
901  10  
902  9   
903  7   
904  3   
905  1   
906  75  
907  7   
908  4   
909  5   
910  5   
911  7   
912  7   
913  10  
914  4   
915  10  
916  7   
917  10  
918  8   
919  4   
920  57  
921  6   
922  6   
923  9   
924  4   
925  5   
926  4   
927  7   
928  3   
929  9   
930  1   
931  4   
932  96  
933  68  
934  5   
935  8   
936  2   
937  9   
938  5   
939  7   
940  9   
941  5   
942  2   
943  9   
944  9   
945  9   
946  7   
947  3   
948  7   
949  4   
950  3   
951  93  
952  5   
953  6   
954  9   
955  4   
956  7   
957  82  
958  5   
959  1   
960  2   
961  5   
962  10  
963  1   
964  9   
965  5   
966  4   
967  71  
968  68  
969  3   
970  3   
971  7   
972  3   
973  79  
974  54  
975  2   
976  8   
977  4   
978  5   
979  10  
980  1   
981  3   
982  69  
983  2   
984  2   
985  3   
986  3   
987  68  
988  1   
989  8   
990  4   
991  8   
992  4   
993  9   
994  4   
995  5   
996  4   
997  1   
998  1   
999  81  
1000 10  
1001 3   
1002 62  
1003 2   
1004 2   
1005 92  
1006 8   
1007 5   
1008 83  
1009 5   
1010 7   
1011 6   
1012 6   
1013 67  
1014 3   
1015 1   
1016 10  
1017 9   
1018 2   
1019 1   
1020 8   
1021 2   
1022 6   
1023 56  
1024 1   
1025 79  
1026 1   
1027 9   
1028 2   
1029 2   
1030 9   
1031 7   
1032 8   
1033 10  
1034 4   
1035 10  
1036 9   
1037 6   
1038 8   
1039 58  
1040 9   
1041 80  
1042 7   
1043 2   
1044 81  
1045 9   
1046 4   
1047 8   
1048 10  
1049 10  
1050 9   
1051 8   
1052 82  
1053 8   
1054 6   
1055 100 
1056 9   
1057 7   
1058 6   
1059 6   
1060 5   
1061 8   
1062 1   
1063 5   
1064 8   
1065 1   
1066 10  
1067 5   
1068 78  
1069 4   
1070 1   
1071 5   
1072 3   
1073 8   
1074 55  
1075 5   
1076 89  
1077 6   
1078 7   
1079 71  
1080 7   
1081 50  
1082 5   
1083 57  
1084 59  
1085 87  
1086 1   
1087 62  
1088 8   
1089 5   
1090 1   
1091 52  
1092 61  
1093 3   
1094 4   
1095 7   
1096 7   
1097 3   
1098 9   
1099 5   
1100 1   
1101 90  
1102 4   
1103 7   
1104 3   
1105 9   
1106 3   
1107 4   
1108 2   
1109 96  
1110 1   
1111 10  
1112 4   
1113 10  
1114 1   
1115 1   
1116 7   
1117 1   
1118 5   
1119 7   
1120 1   
1121 1   
1122 4   
1123 59  
1124 2   
1125 2   
1126 4   
1127 10  
1128 10  
1129 10  
1130 4   
1131 9   
1132 6   
1133 5   
1134 9   
1135 7   
1136 3   
1137 63  
1138 6   
1139 3   
1140 1   
1141 9   
1142 5   
1143 67  
1144 9   
1145 3   
1146 6   
1147 2   
1148 90  
1149 6   
1150 9   
1151 56  
1152 4   
1153 76  
1154 4   
1155 5   
1156 2   
1157 52  
1158 9   
1159 52  
1160 5   
1161 5   
1162 2   
1163 8   
1164 5   
1165 1   
1166 9   
1167 4   
1168 2   
1169 70  
1170 9   
1171 5   
1172 9   
1173 4   
1174 4   
1175 96  
1176 3   
1177 9   
1178 3   
1179 1   
1180 2   
1181 6   
1182 7   
1183 7   
1184 3   
1185 1   
1186 4   
1187 4   
1188 7   
1189 2   
1190 1   
1191 3   
1192 7   
1193 7   
1194 3   
1195 57  
1196 6   
1197 3   
1198 5   
1199 9   
1200 1   
1201 4   
1202 4   
1203 4   
1204 82  
1205 4   
1206 7   
1207 65  
1208 3   
1209 8   
1210 4   
1211 5   
1212 98  
1213 3   
1214 1   
1215 7   
1216 1   
1217 4   
1218 52  
1219 9   
1220 9   
1221 10  
1222 57  
1223 4   
1224 1   
1225 7   
1226 3   
1227 4   
1228 1   
1229 3   
1230 8   
1231 1   
1232 6   
1233 6   
1234 8   
1235 6   
1236 7   
1237 6   
1238 9   
1239 4   
1240 10  
1241 9   
1242 9   
1243 2   
1244 10  
1245 60  
1246 6   
1247 10  
1248 5   
1249 84  
1250 1   
1251 4   
1252 62  
1253 6   
1254 10  
1255 5   
1256 78  
1257 9   
1258 4   
1259 2   
1260 6   
1261 10  
1262 4   
1263 5   
1264 4   
1265 5   
1266 10  
1267 1   
1268 4   
1269 3   
1270 10  
1271 76  
1272 2   
1273 4   
1274 54  
1275 9   
1276 6   
1277 10  
1278 1   
1279 60  
1280 3   
1281 1   
1282 5   
1283 94  
1284 7   
1285 4   
1286 9   
1287 8   
1288 1   
1289 4   
1290 10  
1291 10  
1292 1   
1293 9   
1294 6   
1295 10  
1296 3   
1297 4   
1298 51  
1299 71  
1300 8   
1301 10  
1302 4   
1303 10  
1304 9   
1305 2   
1306 1   
1307 1   
1308 5   
1309 94  
1310 10  
1311 10  
1312 5   
1313 9   
1314 1   
1315 52  
1316 9   
1317 7   
1318 1   
1319 7   
1320 73  
1321 2   
1322 71  
1323 4   
1324 7   
1325 89  
1326 1   
1327 1   
1328 3   
1329 4   
1330 91  
1331 8   
1332 9   
1333 52  
1334 9   
1335 2   
1336 5   
1337 5   
1338 5   
1339 2   
1340 94  
1341 8   
1342 8   
1343 9   
1344 5   
1345 8   
1346 3   
1347 2   
1348 3   
1349 8   
1350 2   
1351 2   
1352 94  
1353 8   
1354 96  
1355 5   
1356 9   
1357 5   
1358 9   
1359 2   
1360 1   
1361 8   
1362 5   
1363 8   
1364 8   
1365 9   
1366 8   
1367 5   
1368 10  
1369 1   
1370 10  
1371 4   
1372 78  
1373 6   
1374 59  
1375 74  
1376 84  
1377 70  
1378 5   
1379 6   
1380 6   
1381 10  
1382 53  
1383 4   
1384 10  
1385 6   
1386 7   
1387 3   
1388 4   
1389 9   
1390 6   
1391 7   
1392 80  
1393 9   
1394 84  
1395 8   
1396 6   
1397 8   
1398 4   
1399 7   
1400 6   
1401 5   
1402 4   
1403 9   
1404 4   
1405 8   
1406 2   
1407 10  
1408 3   
1409 5   
1410 1   
1411 3   
1412 7   
1413 91  
1414 6   
1415 4   
1416 9   
1417 9   
1418 2   
1419 10  
1420 85  
1421 65  
1422 4   
1423 3   
1424 4   
1425 4   
1426 8   
1427 2   
1428 59  
1429 7   
1430 3   
1431 54  
1432 5   
1433 74  
1434 66  
1435 8   
1436 9   
1437 1   
1438 9   
1439 6   
1440 66  
1441 76  
1442 9   
1443 1   
1444 10  
1445 92  
1446 75  
1447 9   
1448 1   
1449 3   
1450 53  
1451 7   
1452 7   
1453 2   
1454 62  
1455 1   
1456 1   
1457 8   
1458 90  
1459 9   
1460 2   
1461 6   
1462 9   
1463 1   
1464 10  
1465 4   
1466 10  
1467 7   
1468 89  
1469 100 
1470 3   
1471 1   
1472 1   
1473 2   
1474 6   
1475 6   
1476 52  
1477 5   
1478 10  
1479 9   
1480 9   
1481 75  
1482 10  
1483 8   
1484 10  
1485 83  
1486 7   
1487 5   
1488 6   
1489 10  
1490 1   
1491 4   
1492 10  
1493 5   
1494 7   
1495 68  
1496 57  
1497 78  
1498 5   
1499 2   
1500 4   
1501 7   
1502 2   
1503 10  
1504 3   
1505 4   
1506 4   
1507 8   
1508 81  
1509 4   
1510 5   
1511 10  
1512 7   
1513 5   
1514 7   
1515 10  
1516 77  
1517 5   
1518 97  
1519 10  
1520 5   
1521 6   
1522 1   
1523 1   
1524 4   
1525 79  
1526 4   
1527 7   
1528 2   
1529 8   
1530 86  
1531 4   
1532 3   
1533 4   
1534 1   
1535 6   
1536 3   
1537 9   
1538 4   
1539 1   
1540 7   
1541 2   
1542 95  
1543 79  
1544 5   
1545 4   
1546 3   
1547 91  
1548 7   
1549 9   
1550 6   
1551 4   
1552 5   
1553 4   
1554 6   
1555 3   
1556 9   
1557 5   
1558 78  
1559 6   
1560 10  
1561 99  
1562 8   
1563 4   
1564 6   
1565 2   
1566 10  
1567 2   
1568 59  
1569 1   
1570 67  
1571 5   
1572 1   
1573 1   
1574 4   
1575 5   
1576 10  
1577 93  
1578 10  
1579 66  
1580 6   
1581 10  
1582 7   
1583 2   
1584 2   
1585 1   
1586 1   
1587 7   
1588 4   
1589 57  
1590 98  
1591 1   
1592 3   
1593 6   
1594 9   
1595 8   
1596 2   
1597 2   
1598 9   
1599 5   
1600 80  
1601 52  
1602 80  
1603 10  
1604 84  
1605 78  
1606 69  
1607 8   
1608 5   
1609 6   
1610 6   
1611 8   
1612 7   
1613 2   
1614 85  
1615 10  
1616 8   
1617 3   
1618 90  
1619 10  
1620 7   
1621 6   
1622 6   
1623 79  
1624 1   
1625 8   
1626 2   
1627 6   
1628 93  
1629 10  
1630 8   
1631 5   
1632 10  
1633 5   
1634 9   
1635 10  
1636 4   
1637 7   
1638 5   
1639 1   
1640 3   
1641 3   
1642 6   
1643 92  
1644 56  
1645 2   
1646 53  
1647 7   
1648 4   
1649 88  
1650 61  
1651 51  
1652 4   
1653 3   
1654 1   
1655 5   
1656 96  
1657 9   
1658 52  
1659 2   
1660 2   
1661 10  
1662 4   
1663 10  
1664 8   
1665 9   
1666 1   
1667 2   
1668 8   
1669 2   
1670 98  
1671 10  
1672 3   
1673 1   
1674 2   
1675 99  
1676 5   
1677 1   
1678 6   
1679 5   
1680 9   
1681 8   
1682 6   
1683 4   
1684 1   
1685 8   
1686 78  
1687 1   
1688 10  
1689 2   
1690 4   
1691 3   
1692 8   
1693 6   
1694 87  
1695 4   
1696 2   
1697 4   
1698 3   
1699 2   
1700 5   
1701 2   
1702 5   
1703 2   
1704 9   
1705 83  
1706 9   
1707 2   
1708 6   
1709 2   
1710 2   
1711 99  
1712 90  
1713 10  
1714 4   
1715 3   
1716 72  
1717 4   
1718 75  
1719 90  
1720 1   
1721 8   
1722 7   
1723 9   
1724 5   
1725 96  
1726 3   
1727 94  
1728 2   
1729 83  
1730 2   
1731 10  
1732 53  
1733 4   
1734 7   
1735 3   
1736 6   
1737 84  
1738 8   
1739 3   
1740 10  
1741 8   
1742 6   
1743 1   
1744 99  
1745 87  
1746 6   
1747 5   
1748 3   
1749 5   
1750 8   
1751 61  
1752 9   
1753 2   
1754 2   
1755 1   
1756 1   
1757 1   
1758 5   
1759 2   
1760 7   
1761 7   
1762 5   
1763 89  
1764 3   
1765 6   
1766 95  
1767 1   
1768 71  
1769 6   
1770 2   
1771 3   
1772 4   
1773 87  
1774 2   
1775 59  
1776 2   
1777 4   
1778 4   
1779 7   
1780 5   
1781 1   
1782 2   
1783 9   
1784 2   
1785 9   
1786 9   
1787 5   
1788 7   
1789 3   
1790 10  
1791 8   
1792 74  
1793 9   
1794 1   
1795 10  
1796 2   
1797 10  
1798 9   
1799 1   
1800 9   
1801 1   
1802 8   
1803 4   
1804 3   
1805 5   
1806 6   
1807 99  
1808 84  
1809 7   
1810 4   
1811 3   
1812 10  
1813 100 
1814 3   
1815 78  
1816 4   
1817 8   
1818 8   
1819 6   
1820 8   
1821 9   
1822 8   
1823 10  
1824 2   
1825 2   
1826 4   
1827 9   
1828 2   
1829 9   
1830 8   
1831 66  
1832 8   
1833 10  
1834 100 
1835 1   
1836 91  
1837 55  
1838 61  
1839 1   
1840 8   
1841 4   
1842 8   
1843 5   
1844 5   
1845 7   
1846 2   
1847 9   
1848 5   
1849 5   
1850 9   
1851 7   
1852 100 
1853 8   
1854 10  
1855 68  
1856 9   
1857 2   
1858 5   
1859 99  
1860 3   
1861 9   
1862 3   
1863 3   
1864 10  
1865 54  
1866 58  
1867 80  
1868 6   
1869 7   
1870 2   
1871 2   
1872 7   
1873 5   
1874 6   
1875 6   
1876 6   
1877 82  
1878 2   
1879 2   
1880 8   
1881 10  
1882 2   
1883 10  
1884 8   
1885 7   
1886 5   
1887 7   
1888 4   
1889 2   
1890 7   
1891 5   
1892 2   
1893 81  
1894 70  
1895 4   
1896 52  
1897 50  
1898 73  
1899 3   
1900 2   
1901 87  
1902 6   
1903 5   
1904 87  
1905 5   
1906 64  
1907 8   
1908 5   
1909 10  
1910 1   
1911 2   
1912 10  
1913 6   
1914 2   
1915 70  
1916 9   
1917 59  
1918 6   
1919 7   
1920 9   
1921 5   
1922 3   
1923 8   
1924 9   
1925 4   
1926 2   
1927 4   
1928 1   
1929 8   
1930 2   
1931 75  
1932 5   
1933 10  
1934 7   
1935 7   
1936 2   
1937 5   
1938 8   
1939 69  
1940 71  
1941 6   
1942 4   
1943 80  
1944 5   
1945 8   
1946 6   
1947 6   
1948 7   
1949 70  
1950 3   
1951 8   
1952 95  
1953 97  
1954 10  
1955 4   
1956 6   
1957 9   
1958 6   
1959 10  
1960 7   
1961 77  
1962 88  
1963 2   
1964 2   
1965 4   
1966 3   
1967 5   
1968 61  
1969 6   
1970 8   
1971 4   
1972 9   
1973 1   
1974 72  
1975 3   
1976 6   
1977 10  
1978 10  
1979 1   
1980 2   
1981 2   
1982 5   
1983 5   
1984 9   
1985 5   
1986 2   
1987 10  
1988 2   
1989 7   
1990 7   
1991 7   
1992 4   
1993 3   
1994 8   
1995 10  
1996 50  
1997 3   
1998 50  
1999 10  
2000 6   
2001 3   
2002 9   
2003 10  
2004 5   
2005 9   
2006 3   
2007 5   
2008 1   
2009 61  
2010 1   
2011 83  
2012 5   
2013 1   
2014 5   
2015 56  
2016 1   
2017 10  
2018 4   
2019 6   
2020 9   
2021 6   
2022 2   
2023 6   
2024 8   
2025 6   
2026 1   
2027 2   
2028 10  
2029 9   
2030 3   
2031 10  
2032 5   
2033 3   
2034 9   
2035 6   
2036 64  
2037 75  
2038 92  
2039 10  
2040 90  
2041 3   
2042 4   
2043 4   
2044 3   
2045 2   
2046 4   
2047 1   
2048 60  
2049 7   
2050 10  
2051 10  
2052 3   
2053 2   
2054 8   
2055 5   
2056 7   
2057 6   
2058 7   
2059 4   
2060 2   
2061 7   
2062 73  
2063 8   
2064 3   
2065 7   
2066 6   
2067 7   
2068 4   
2069 1   
2070 8   
2071 6   
2072 10  
2073 4   
2074 8   
2075 2   
2076 9   
2077 91  
2078 3   
2079 8   
2080 4   
2081 3   
2082 9   
2083 5   
2084 10  
2085 96  
2086 4   
2087 78  
2088 90  
2089 91  
2090 7   
2091 8   
2092 5   
2093 7   
2094 10  
2095 85  
2096 55  
2097 1   
2098 2   
2099 10  
2100 4   
2101 3   
2102 3   
2103 5   
2104 75  
2105 73  
2106 5   
2107 4   
2108 3   
2109 4   
2110 7   
2111 10  
2112 9   
2113 3   
2114 2   
2115 10  
2116 52  
2117 10  
2118 9   
2119 8   
2120 2   
2121 8   
2122 10  
2123 9   
2124 61  
2125 8   
2126 4   
2127 1   
2128 7   
2129 7   
2130 10  
2131 5   
2132 9   
2133 76  
2134 6   
2135 3   
2136 3   
2137 10  
2138 2   
2139 8   
2140 63  
2141 10  
2142 10  
2143 10  
2144 2   
2145 1   
2146 4   
2147 6   
2148 9   
2149 10  
2150 2   
2151 95  
2152 8   
2153 3   
2154 7   
2155 81  
2156 9   
2157 2   
2158 5   
2159 92  
2160 4   
2161 1   
2162 2   
2163 4   
2164 3   
2165 1   
2166 51  
2167 4   
2168 3   
2169 1   
2170 1   
2171 7   
2172 60  
2173 5   
2174 6   
2175 9   
2176 8   
2177 1   
2178 63  
2179 1   
2180 73  
2181 8   
2182 5   
2183 1   
2184 1   
2185 6   
2186 10  
2187 2   
2188 10  
2189 9   
2190 57  
2191 1   
2192 10  
2193 10  
2194 8   
2195 10  
2196 6   
2197 10  
2198 90  
2199 3   
2200 8   
2201 7   
2202 84  
2203 3   
2204 7   
2205 9   
2206 4   
2207 77  
2208 6   
2209 10  
2210 5   
2211 6   
2212 1   
2213 3   
2214 10  
2215 100 
2216 6   
2217 7   
2218 6   
2219 7   
2220 1   
2221 5   
2222 7   
2223 2   
2224 5   
2225 58  
2226 5   
2227 1   
2228 8   
2229 5   
2230 3   
2231 1   
2232 3   
2233 87  
2234 7   
2235 10  
2236 5   
2237 84  
2238 4   
2239 84  
2240 5   
2241 8   
2242 6   
2243 2   
2244 9   
2245 9   
2246 4   
2247 6   
2248 1   
2249 2   
2250 5   
2251 3   
2252 1   
2253 5   
2254 6   
2255 9   
2256 90  
2257 2   
2258 10  
2259 5   
2260 1   
2261 7   
2262 10  
2263 4   
2264 10  
2265 10  
2266 8   
2267 3   
2268 8   
2269 4   
2270 10  
2271 5   
2272 96  
2273 2   
2274 1   
2275 66  
2276 10  
2277 10  
2278 8   
2279 1   
2280 2   
2281 8   
2282 82  
2283 4   
2284 2   
2285 77  
2286 1   
2287 80  
2288 2   
2289 7   
2290 7   
2291 5   
2292 8   
2293 10  
2294 1   
2295 3   
2296 2   
2297 9   
2298 8   
2299 9   
2300 66  
2301 63  
2302 2   
2303 51  
2304 5   
2305 1   
2306 5   
2307 92  
2308 9   
2309 4   
2310 4   
2311 7   
2312 1   
2313 97  
2314 4   
2315 8   
2316 8   
2317 6   
2318 2   
2319 10  
2320 3   
2321 7   
2322 7   
2323 8   
2324 80  
2325 7   
2326 7   
2327 1   
2328 5   
2329 2   
2330 7   
2331 1   
2332 9   
2333 50  
2334 7   
2335 1   
2336 1   
2337 7   
2338 4   
2339 6   
2340 76  
2341 3   
2342 79  
2343 5   
2344 8   
2345 7   
2346 2   
2347 2   
2348 1   
2349 57  
2350 91  
2351 78  
2352 99  
2353 2   
2354 2   
2355 1   
2356 3   
2357 5   
2358 6   
2359 2   
2360 83  
2361 5   
2362 6   
2363 79  
2364 64  
2365 56  
2366 90  
2367 8   
2368 66  
2369 8   
2370 62  
2371 5   
2372 3   
2373 8   
2374 78  
2375 6   
2376 10  
2377 10  
2378 5   
2379 9   
2380 4   
2381 94  
2382 85  
2383 6   
2384 8   
2385 7   
2386 9   
2387 95  
2388 9   
2389 4   
2390 5   
2391 86  
2392 55  
2393 2   
2394 3   
2395 80  
2396 4   
2397 8   
2398 4   
2399 6   
2400 10  
2401 3   
2402 1   
2403 5   
2404 100 
2405 7   
2406 3   
2407 64  
2408 3   
2409 6   
2410 10  
2411 2   
2412 3   
2413 2   
2414 8   
2415 74  
2416 1   
2417 10  
2418 2   
2419 5   
2420 1   
2421 74  
2422 10  
2423 9   
2424 3   
2425 7   
2426 96  
2427 7   
2428 2   
2429 10  
2430 1   
2431 3   
2432 7   
2433 10  
2434 9   
2435 5   
2436 7   
2437 2   
2438 2   
2439 4   
2440 3   
2441 64  
2442 8   
2443 3   
2444 3   
2445 1   
2446 10  
2447 8   
2448 9   
2449 5   
2450 77  
2451 2   
2452 7   
2453 9   
2454 4   
2455 69  
2456 3   
2457 2   
2458 1   
2459 3   
2460 8   
2461 3   
2462 8   
2463 3   
2464 9   
2465 7   
2466 54  
2467 1   
2468 7   
2469 7   
2470 3   
2471 79  
2472 5   
2473 8   
2474 89  
2475 80  
2476 2   
2477 3   
2478 10  
2479 58  
2480 55  
2481 3   
2482 56  
2483 9   
2484 7   
2485 3   
2486 69  
2487 4   
2488 2   
2489 4   
2490 2   
2491 1   
2492 10  
2493 5   
2494 8   
2495 7   
2496 9   
2497 5   
2498 2   
2499 4   
2500 9   
2501 1   
2502 10  
2503 2   
2504 50  
2505 3   
2506 2   
2507 9   
2508 98  
2509 10  
2510 1   
2511 3   
2512 8   
2513 1   
2514 8   
2515 7   
2516 7   
2517 7   
2518 10  
2519 8   
2520 1   
2521 5   
2522 10  
2523 10  
2524 5   
2525 5   
2526 8   
2527 4   
2528 94  
2529 10  
2530 7   
2531 8   
2532 5   
2533 3   
2534 4   
2535 8   
2536 2   
2537 10  
2538 9   
2539 10  
2540 97  
2541 5   
2542 81  
2543 7   
2544 76  
2545 8   
2546 4   
2547 87  
2548 2   
2549 9   
2550 9   
2551 70  
2552 100 
2553 8   
2554 89  
2555 9   
2556 4   
2557 4   
2558 56  
2559 98  
2560 90  
2561 86  
2562 77  
2563 5   
2564 1   
2565 8   
2566 97  
2567 4   
2568 3   
2569 9   
2570 95  
2571 76  
2572 6   
2573 5   
2574 72  
2575 7   
2576 6   
2577 4   
2578 68  
2579 8   
2580 5   
2581 69  
2582 3   
2583 8   
2584 4   
2585 1   
2586 6   
2587 1   
2588 9   
2589 97  
2590 92  
2591 6   
2592 6   
2593 2   
2594 3   
2595 4   
2596 6   
2597 5   
2598 9   
2599 4   
2600 2   
2601 8   
2602 3   
2603 2   
2604 82  
2605 10  
2606 7   
2607 7   
2608 1   
2609 5   
2610 64  
2611 84  
2612 3   
2613 8   
2614 58  
2615 10  
2616 3   
2617 1   
2618 5   
2619 7   
2620 56  
2621 67  
2622 1   
2623 10  
2624 4   
2625 7   
2626 9   
2627 10  
2628 6   
2629 10  
2630 1   
2631 3   
2632 8   
2633 4   
2634 4   
2635 7   
2636 6   
2637 2   
2638 96  
2639 6   
2640 91  
2641 8   
2642 63  
2643 8   
2644 2   
2645 3   
2646 10  
2647 8   
2648 4   
2649 6   
2650 9   
2651 78  
2652 6   
2653 70  
2654 5   
2655 10  
2656 96  
2657 4   
2658 4   
2659 81  
2660 6   
2661 91  
2662 1   
2663 9   
2664 1   
2665 2   
2666 5   
2667 7   
2668 62  
2669 2   
2670 3   
2671 7   
2672 9   
2673 10  
2674 62  
2675 3   
2676 8   
2677 5   
2678 4   
2679 3   
2680 1   
2681 4   
2682 4   
2683 6   
2684 2   
2685 100 
2686 10  
2687 5   
2688 63  
2689 9   
2690 3   
2691 7   
2692 1   
2693 9   
2694 6   
2695 4   
2696 86  
2697 6   
2698 5   
2699 1   
2700 87  
2701 9   
2702 4   
2703 3   
2704 1   
2705 6   
2706 4   
2707 1   
2708 74  
2709 9   
2710 80  
2711 1   
2712 3   
2713 70  
2714 4   
2715 9   
2716 4   
2717 65  
2718 97  
2719 70  
2720 10  
2721 4   
2722 74  
2723 70  
2724 3   
2725 1   
2726 51  
2727 9   
2728 9   
2729 9   
2730 1   
2731 3   
2732 2   
2733 7   
2734 5   
2735 7   
2736 57  
2737 6   
2738 83  
2739 7   
2740 9   
2741 78  
2742 2   
2743 81  
2744 7   
2745 2   
2746 9   
2747 4   
2748 4   
2749 7   
2750 10  
2751 5   
2752 53  
2753 93  
2754 9   
2755 4   
2756 4   
2757 1   
2758 2   
2759 2   
2760 63  
2761 2   
2762 6   
2763 90  
2764 5   
2765 5   
2766 3   
2767 2   
2768 80  
2769 5   
2770 7   
2771 6   
2772 1   
2773 9   
2774 1   
2775 3   
2776 78  
2777 83  
2778 2   
2779 2   
2780 8   
2781 7   
2782 1   
2783 6   
2784 1   
2785 4   
2786 9   
2787 6   
2788 6   
2789 3   
2790 6   
2791 4   
2792 2   
2793 86  
2794 6   
2795 2   
2796 1   
2797 9   
2798 7   
2799 5   
2800 10  
2801 5   
2802 4   
2803 2   
2804 87  
2805 10  
2806 9   
2807 1   
2808 10  
2809 62  
2810 5   
2811 97  
2812 1   
2813 99  
2814 7   
2815 5   
2816 9   
2817 7   
2818 8   
2819 97  
2820 6   
2821 4   
2822 3   
2823 3   
2824 8   
2825 9   
2826 2   
2827 7   
2828 3   
2829 5   
2830 4   
2831 8   
2832 2   
2833 1   
2834 93  
2835 1   
2836 9   
2837 4   
2838 6   
2839 4   
2840 3   
2841 1   
2842 82  
2843 5   
2844 7   
2845 8   
2846 7   
2847 9   
2848 3   
2849 3   
2850 1   
2851 6   
2852 55  
2853 4   
2854 82  
2855 9   
2856 1   
2857 7   
2858 66  
2859 7   
2860 2   
2861 7   
2862 2   
2863 78  
2864 60  
2865 7   
2866 10  
2867 63  
2868 2   
2869 59  
2870 4   
2871 2   
2872 88  
2873 3   
2874 6   
2875 3   
2876 6   
2877 4   
2878 7   
2879 1   
2880 4   
2881 85  
2882 8   
2883 90  
2884 5   
2885 3   
2886 5   
2887 10  
2888 88  
2889 99  
2890 10  
2891 7   
2892 65  
2893 4   
2894 8   
2895 5   
2896 100 
2897 9   
2898 8   
2899 93  
2900 8   
2901 7   
2902 8   
2903 60  
2904 3   
2905 2   
2906 4   
2907 8   
2908 4   
2909 4   
2910 66  
2911 8   
2912 4   
2913 6   
2914 9   
2915 10  
2916 5   
2917 8   
2918 4   
2919 6   
2920 10  
2921 3   
2922 9   
2923 4   
2924 5   
2925 8   
2926 7   
2927 4   
2928 4   
2929 7   
2930 3   
2931 6   
2932 6   
2933 7   
2934 3   
2935 85  
2936 7   
2937 8   
2938 10  
2939 3   
2940 9   
2941 52  
2942 10  
2943 67  
2944 7   
2945 3   
2946 1   
2947 6   
2948 7   
2949 9   
2950 4   
2951 10  
2952 5   
2953 58  
2954 8   
2955 9   
2956 2   
2957 1   
2958 4   
2959 10  
2960 1   
2961 5   
2962 94  
2963 7   
2964 76  
2965 5   
2966 3   
2967 69  
2968 4   
2969 9   
2970 62  
2971 6   
2972 5   
2973 2   
2974 63  
2975 1   
2976 7   
2977 3   
2978 5   
2979 80  
2980 61  
2981 56  
2982 2   
2983 2   
2984 8   
2985 6   
2986 1   
2987 9   
2988 7   
2989 8   
2990 2   
2991 5   
2992 3   
2993 7   
2994 9   
2995 93  
2996 7   
2997 7   
2998 62  
2999 1   
3000 3   
3001 7   
3002 5   
3003 3   
3004 6   
3005 9   
3006 3   
3007 5   
3008 7   
3009 7   
3010 2   
3011 5   
3012 3   
3013 80  
3014 61  
3015 8   
3016 83  
3017 54  
3018 10  
3019 10  
3020 1   
3021 7   
3022 90  
3023 3   
3024 1   
3025 2   
3026 3   
3027 9   
3028 8   
3029 6   
3030 5   
3031 54  
3032 61  
3033 8   
3034 4   
3035 3   
3036 2   
3037 98  
3038 6   
3039 6   
3040 9   
3041 79  
3042 10  
3043 3   
3044 9   
3045 8   
3046 6   
3047 6   
3048 6   
3049 10  
3050 4   
3051 89  
3052 10  
3053 2   
3054 5   
3055 1   
3056 60  
3057 7   
3058 10  
3059 4   
3060 9   
3061 9   
3062 52  
3063 10  
3064 10  
3065 61  
3066 50  
3067 9   
3068 3   
3069 9   
3070 9   
3071 6   
3072 2   
3073 10  
3074 72  
3075 4   
3076 96  
3077 7   
3078 52  
3079 1   
3080 9   
3081 7   
3082 9   
3083 6   
3084 62  
3085 6   
3086 68  
3087 3   
3088 59  
3089 10  
3090 4   
3091 3   
3092 3   
3093 8   
3094 10  
3095 4   
3096 7   
3097 8   
3098 3   
3099 6   
3100 10  
3101 88  
3102 5   
3103 88  
3104 5   
3105 4   
3106 2   
3107 1   
3108 8   
3109 4   
3110 1   
3111 95  
3112 9   
3113 7   
3114 9   
3115 3   
3116 5   
3117 58  
3118 9   
3119 2   
3120 7   
3121 91  
3122 5   
3123 9   
3124 6   
3125 2   
3126 2   
3127 7   
3128 75  
3129 9   
3130 6   
3131 7   
3132 64  
3133 5   
3134 75  
3135 6   
3136 2   
3137 3   
3138 100 
3139 10  
3140 10  
3141 8   
3142 7   
3143 6   
3144 6   
3145 7   
3146 71  
3147 10  
3148 5   
3149 2   
3150 3   
3151 2   
3152 9   
3153 7   
3154 3   
3155 5   
3156 7   
3157 5   
3158 9   
3159 10  
3160 1   
3161 85  
3162 8   
3163 80  
3164 9   
3165 3   
3166 8   
3167 75  
3168 87  
3169 7   
3170 10  
3171 3   
3172 8   
3173 1   
3174 6   
3175 7   
3176 5   
3177 6   
3178 8   
3179 1   
3180 7   
3181 8   
3182 7   
3183 8   
3184 5   
3185 56  
3186 3   
3187 9   
3188 8   
3189 9   
3190 7   
3191 3   
3192 8   
3193 1   
3194 6   
3195 66  
3196 4   
3197 100 
3198 4   
3199 10  
3200 3   
3201 1   
3202 5   
3203 70  
3204 9   
3205 4   
3206 4   
3207 8   
3208 7   
3209 8   
3210 9   
3211 1   
3212 9   
3213 3   
3214 6   
3215 4   
3216 7   
3217 2   
3218 5   
3219 5   
3220 2   
3221 3   
3222 3   
3223 2   
3224 4   
3225 10  
3226 7   
3227 1   
3228 5   
3229 6   
3230 5   
3231 89  
3232 1   
3233 2   
3234 89  
3235 2   
3236 10  
3237 10  
3238 7   
3239 4   
3240 7   
3241 6   
3242 5   
3243 2   
3244 2   
3245 7   
3246 3   
3247 2   
3248 64  
3249 9   
3250 8   
3251 9   
3252 82  
3253 61  
3254 6   
3255 4   
3256 56  
3257 7   
3258 10  
3259 5   
3260 2   
3261 10  
3262 1   
3263 78  
3264 8   
3265 100 
3266 94  
3267 2   
3268 5   
3269 3   
3270 7   
3271 80  
3272 9   
3273 9   
3274 8   
3275 1   
3276 3   
3277 3   
3278 81  
3279 3   
3280 85  
3281 5   
3282 6   
3283 7   
3284 75  
3285 9   
3286 9   
3287 9   
3288 3   
3289 3   
3290 4   
3291 58  
3292 2   
3293 1   
3294 10  
3295 2   
3296 2   
3297 1   
3298 9   
3299 10  
3300 4   
3301 8   
3302 8   
3303 1   
3304 3   
3305 2   
3306 1   
3307 53  
3308 78  
3309 72  
3310 76  
3311 1   
3312 1   
3313 6   
3314 57  
3315 7   
3316 10  
3317 4   
3318 2   
3319 9   
3320 3   
3321 5   
3322 63  
3323 76  
3324 6   
3325 2   
3326 2   
3327 9   
3328 79  
3329 5   
3330 6   
3331 4   
3332 8   
3333 5   
3334 5   
3335 8   
3336 10  
3337 8   
3338 1   
3339 3   
3340 6   
3341 9   
3342 10  
3343 3   
3344 4   
3345 3   
3346 2   
3347 1   
3348 6   
3349 3   
3350 3   
3351 5   
3352 4   
3353 6   
3354 1   
3355 4   
3356 1   
3357 9   
3358 7   
3359 79  
3360 8   
3361 7   
3362 2   
3363 7   
3364 2   
3365 59  
3366 7   
3367 7   
3368 1   
3369 1   
3370 6   
3371 8   
3372 2   
3373 52  
3374 8   
3375 7   
3376 5   
3377 74  
3378 93  
3379 76  
3380 84  
3381 5   
3382 10  
3383 2   
3384 78  
3385 6   
3386 3   
3387 10  
3388 6   
3389 57  
3390 6   
3391 9   
3392 6   
3393 98  
3394 94  
3395 1   
3396 8   
3397 10  
3398 10  
3399 1   
3400 83  
3401 4   
3402 4   
3403 5   
3404 4   
3405 67  
3406 7   
3407 9   
3408 5   
3409 2   
3410 1   
3411 8   
3412 6   
3413 8   
3414 8   
3415 3   
3416 4   
3417 1   
3418 8   
3419 10  
3420 2   
3421 6   
3422 4   
3423 96  
3424 4   
3425 95  
3426 80  
3427 8   
3428 83  
3429 4   
3430 5   
3431 5   
3432 2   
3433 9   
3434 6   
3435 99  
3436 10  
3437 6   
3438 2   
3439 1   
3440 63  
3441 3   
3442 7   
3443 3   
3444 1   
3445 1   
3446 7   
3447 9   
3448 99  
3449 5   
3450 6   
3451 8   
3452 3   
3453 1   
3454 4   
3455 7   
3456 10  
3457 58  
3458 81  
3459 10  
3460 90  
3461 4   
3462 10  
3463 7   
3464 71  
3465 8   
3466 74  
3467 4   
3468 4   
3469 3   
3470 7   
3471 7   
3472 10  
3473 1   
3474 9   
3475 8   
3476 1   
3477 8   
3478 10  
3479 7   
3480 5   
3481 100 
3482 10  
3483 70  
3484 3   
3485 7   
3486 4   
3487 93  
3488 3   
3489 3   
3490 4   
3491 8   
3492 6   
3493 9   
3494 3   
3495 5   
3496 3   
3497 2   
3498 7   
3499 5   
3500 1   
3501 7   
3502 2   
3503 7   
3504 7   
3505 83  
3506 3   
3507 6   
3508 9   
3509 6   
3510 6   
3511 1   
3512 51  
3513 88  
3514 2   
3515 8   
3516 6   
3517 9   
3518 4   
3519 66  
3520 3   
3521 1   
3522 3   
3523 63  
3524 90  
3525 6   
3526 5   
3527 7   
3528 4   
3529 7   
3530 7   
3531 93  
3532 2   
3533 5   
3534 10  
3535 3   
3536 2   
3537 82  
3538 10  
3539 5   
3540 9   
3541 10  
3542 9   
3543 94  
3544 9   
3545 7   
3546 8   
3547 63  
3548 1   
3549 3   
3550 6   
3551 90  
3552 72  
3553 98  
3554 3   
3555 1   
3556 8   
3557 89  
3558 4   
3559 8   
3560 4   
3561 10  
3562 6   
3563 7   
3564 3   
3565 78  
3566 8   
3567 8   
3568 53  
3569 6   
3570 8   
3571 99  
3572 4   
3573 96  
3574 4   
3575 5   
3576 2   
3577 8   
3578 59  
3579 9   
3580 3   
3581 1   
3582 9   
3583 4   
3584 4   
3585 5   
3586 4   
3587 9   
3588 69  
3589 3   
3590 1   
3591 1   
3592 6   
3593 9   
3594 1   
3595 7   
3596 57  
3597 7   
3598 70  
3599 69  
3600 92  
3601 7   
3602 53  
3603 3   
3604 3   
3605 3   
3606 1   
3607 6   
3608 10  
3609 2   
3610 6   
3611 1   
3612 3   
3613 2   
3614 2   
3615 1   
3616 77  
3617 6   
3618 8   
3619 71  
3620 6   
3621 7   
3622 6   
3623 10  
3624 3   
3625 5   
3626 10  
3627 53  
3628 79  
3629 70  
3630 10  
3631 67  
3632 4   
3633 7   
3634 8   
3635 5   
3636 8   
3637 76  
3638 8   
3639 9   
3640 9   
3641 89  
3642 9   
3643 3   
3644 68  
3645 10  
3646 10  
3647 74  
3648 7   
3649 7   
3650 3   
3651 6   
3652 6   
3653 9   
3654 5   
3655 6   
3656 6   
3657 59  
3658 7   
3659 8   
3660 66  
3661 6   
3662 6   
3663 73  
3664 1   
3665 9   
3666 3   
3667 8   
3668 7   
3669 2   
3670 9   
3671 5   
3672 70  
3673 6   
3674 100 
3675 2   
3676 71  
3677 4   
3678 9   
3679 2   
3680 55  
3681 87  
3682 86  
3683 3   
3684 5   
3685 10  
3686 2   
3687 5   
3688 5   
3689 2   
3690 66  
3691 8   
3692 2   
3693 5   
3694 89  
3695 7   
3696 3   
3697 9   
3698 73  
3699 8   
3700 1   
3701 91  
3702 7   
3703 9   
3704 6   
3705 4   
3706 5   
3707 6   
3708 5   
3709 78  
3710 9   
3711 7   
3712 1   
3713 4   
3714 7   
3715 10  
3716 6   
3717 7   
3718 1   
3719 3   
3720 93  
3721 1   
3722 2   
3723 7   
3724 84  
3725 6   
3726 7   
3727 93  
3728 1   
3729 1   
3730 4   
3731 75  
3732 66  
3733 2   
3734 4   
3735 63  
3736 100 
3737 99  
3738 3   
3739 1   
3740 3   
3741 5   
3742 5   
3743 3   
3744 63  
3745 7   
3746 70  
3747 7   
3748 10  
3749 64  
3750 7   
3751 6   
3752 91  
3753 3   
3754 3   
3755 10  
3756 8   
3757 8   
3758 10  
3759 80  
3760 4   
3761 8   
3762 4   
3763 4   
3764 1   
3765 1   
3766 1   
3767 92  
3768 9   
3769 8   
3770 4   
3771 64  
3772 5   
3773 8   
3774 66  
3775 64  
3776 9   
3777 5   
3778 8   
3779 2   
3780 60  
3781 9   
3782 5   
3783 10  
3784 82  
3785 1   
3786 2   
3787 7   
3788 64  
3789 78  
3790 8   
3791 86  
3792 2   
3793 4   
3794 8   
3795 10  
3796 9   
3797 10  
3798 2   
3799 9   
3800 10  
3801 77  
3802 4   
3803 3   
3804 4   
3805 3   
3806 1   
3807 2   
3808 6   
3809 1   
3810 5   
3811 1   
3812 10  
3813 77  
3814 7   
3815 1   
3816 52  
3817 2   
3818 5   
3819 9   
3820 5   
3821 5   
3822 7   
3823 6   
3824 5   
3825 10  
3826 90  
3827 8   
3828 54  
3829 8   
3830 58  
3831 3   
3832 10  
3833 5   
3834 9   
3835 93  
3836 2   
3837 5   
3838 8   
3839 9   
3840 2   
3841 92  
3842 4   
3843 8   
3844 1   
3845 6   
3846 10  
3847 10  
3848 7   
3849 9   
3850 1   
3851 5   
3852 6   
3853 4   
3854 3   
3855 1   
3856 10  
3857 100 
3858 7   
3859 75  
3860 2   
3861 94  
3862 2   
3863 10  
3864 4   
3865 2   
3866 10  
3867 83  
3868 1   
3869 86  
3870 76  
3871 2   
3872 5   
3873 71  
3874 10  
3875 1   
3876 2   
3877 3   
3878 1   
3879 8   
3880 1   
3881 73  
3882 2   
3883 9   
3884 90  
3885 4   
3886 6   
3887 9   
3888 54  
3889 7   
3890 8   
3891 7   
3892 4   
3893 66  
3894 9   
3895 2   
3896 1   
3897 8   
3898 4   
3899 10  
3900 6   
3901 6   
3902 7   
3903 1   
3904 57  
3905 2   
3906 3   
3907 9   
3908 9   
3909 10  
3910 10  
3911 4   
3912 1   
3913 5   
3914 4   
3915 10  
3916 10  
3917 7   
3918 7   
3919 4   
3920 9   
3921 1   
3922 4   
3923 3   
3924 5   
3925 5   
3926 75  
3927 4   
3928 10  
3929 8   
3930 85  
3931 72  
3932 5   
3933 5   
3934 3   
3935 3   
3936 4   
3937 1   
3938 8   
3939 9   
3940 2   
3941 8   
3942 2   
3943 10  
3944 82  
3945 5   
3946 3   
3947 7   
3948 6   
3949 96  
3950 81  
3951 2   
3952 89  
3953 3   
3954 6   
3955 7   
3956 6   
3957 7   
3958 5   
3959 1   
3960 3   
3961 9   
3962 86  
3963 1   
3964 60  
3965 7   
3966 10  
3967 99  
3968 5   
3969 3   
3970 9   
3971 9   
3972 7   
3973 10  
3974 9   
3975 90  
3976 4   
3977 6   
3978 9   
3979 6   
3980 3   
3981 6   
3982 10  
3983 4   
3984 3   
3985 5   
3986 94  
3987 6   
3988 10  
3989 2   
3990 92  
3991 98  
3992 57  
3993 7   
3994 9   
3995 5   
3996 83  
3997 2   
3998 8   
3999 3   
4000 6   
4001 3   
4002 7   
4003 3   
4004 6   
4005 1   
4006 8   
4007 1   
4008 6   
4009 59  
4010 9   
4011 92  
4012 1   
4013 94  
4014 10  
4015 8   
4016 8   
4017 6   
4018 78  
4019 10  
4020 5   
4021 97  
4022 52  
4023 3   
4024 10  
4025 5   
4026 3   
4027 6   
4028 86  
4029 4   
4030 5   
4031 6   
4032 2   
4033 4   
4034 54  
4035 4   
4036 4   
4037 1   
4038 6   
4039 1   
4040 1   
4041 3   
4042 3   
4043 1   
4044 86  
4045 2   
4046 8   
4047 3   
4048 8   
4049 10  
4050 78  
4051 2   
4052 97  
4053 6   
4054 2   
4055 3   
4056 7   
4057 6   
4058 2   
4059 5   
4060 5   
4061 78  
4062 98  
4063 3   
4064 95  
4065 53  
4066 9   
4067 2   
4068 53  
4069 7   
4070 9   
4071 10  
4072 64  
4073 8   
4074 2   
4075 91  
4076 6   
4077 4   
4078 6   
4079 9   
4080 1   
4081 3   
4082 10  
4083 3   
4084 7   
4085 10  
4086 7   
4087 6   
4088 1   
4089 62  
4090 9   
4091 64  
4092 10  
4093 94  
4094 9   
4095 2   
4096 8   
4097 7   
4098 5   
4099 2   
4100 6   
4101 10  
4102 82  
4103 9   
4104 1   
4105 1   
4106 10  
4107 61  
4108 1   
4109 5   
4110 96  
4111 74  
4112 10  
4113 5   
4114 3   
4115 57  
4116 2   
4117 8   
4118 6   
4119 89  
4120 3   
4121 5   
4122 88  
4123 5   
4124 4   
4125 5   
4126 6   
4127 4   
4128 10  
4129 6   
4130 4   
4131 87  
4132 72  
4133 3   
4134 2   
4135 82  
4136 68  
4137 5   
4138 10  
4139 7   
4140 6   
4141 8   
4142 8   
4143 2   
4144 7   
4145 6   
4146 1   
4147 10  
4148 9   
4149 7   
4150 2   
4151 6   
4152 5   
4153 9   
4154 9   
4155 1   
4156 2   
4157 5   
4158 10  
4159 9   
4160 7   
4161 1   
4162 3   
4163 3   
4164 7   
4165 2   
4166 97  
4167 4   
4168 5   
4169 7   
4170 10  
4171 5   
4172 3   
4173 5   
4174 7   
4175 3   
4176 5   
4177 2   
4178 3   
4179 9   
4180 6   
4181 3   
4182 10  
4183 2   
4184 4   
4185 5   
4186 6   
4187 5   
4188 4   
4189 4   
4190 3   
4191 8   
4192 6   
4193 87  
4194 7   
4195 8   
4196 6   
4197 2   
4198 91  
4199 6   
4200 1   
4201 2   
4202 9   
4203 10  
4204 77  
4205 10  
4206 57  
4207 8   
4208 10  
4209 4   
4210 63  
4211 8   
4212 9   
4213 51  
4214 8   
4215 7   
4216 1   
4217 89  
4218 7   
4219 10  
4220 5   
4221 6   
4222 3   
4223 2   
4224 100 
4225 6   
4226 7   
4227 10  
4228 4   
4229 66  
4230 71  
4231 2   
4232 2   
4233 92  
4234 6   
4235 2   
4236 3   
4237 5   
4238 8   
4239 7   
4240 9   
4241 9   
4242 95  
4243 8   
4244 8   
4245 92  
4246 7   
4247 9   
4248 1   
4249 10  
4250 69  
4251 85  
4252 1   
4253 1   
4254 4   
4255 6   
4256 9   
4257 9   
4258 1   
4259 9   
4260 2   
4261 1   
4262 4   
4263 1   
4264 88  
4265 3   
4266 61  
4267 5   
4268 6   
4269 2   
4270 3   
4271 3   
4272 92  
4273 6   
4274 10  
4275 7   
4276 10  
4277 63  
4278 6   
4279 8   
4280 73  
4281 3   
4282 7   
4283 4   
4284 2   
4285 69  
4286 8   
4287 1   
4288 1   
4289 3   
4290 4   
4291 8   
4292 5   
4293 7   
4294 10  
4295 2   
4296 8   
4297 10  
4298 6   
4299 9   
4300 1   
4301 7   
4302 83  
4303 4   
4304 1   
4305 6   
4306 10  
4307 67  
4308 10  
4309 4   
4310 8   
4311 83  
4312 8   
4313 6   
4314 6   
4315 3   
4316 71  
4317 10  
4318 3   
4319 1   
4320 5   
4321 4   
4322 5   
4323 3   
4324 3   
4325 1   
4326 3   
4327 76  
4328 3   
4329 5   
4330 2   
4331 61  
4332 7   
4333 6   
4334 89  
4335 4   
4336 90  
4337 9   
4338 79  
4339 6   
4340 6   
4341 7   
4342 4   
4343 8   
4344 2   
4345 76  
4346 1   
4347 61  
4348 7   
4349 8   
4350 7   
4351 52  
4352 2   
4353 85  
4354 4   
4355 7   
4356 4   
4357 5   
4358 1   
4359 84  
4360 1   
4361 7   
4362 5   
4363 7   
4364 6   
4365 7   
4366 8   
4367 8   
4368 2   
4369 5   
4370 1   
4371 7   
4372 86  
4373 89  
4374 1   
4375 6   
4376 5   
4377 10  
4378 4   
4379 5   
4380 96  
4381 4   
4382 7   
4383 8   
4384 1   
4385 3   
4386 87  
4387 70  
4388 8   
4389 7   
4390 9   
4391 2   
4392 5   
4393 4   
4394 9   
4395 7   
4396 6   
4397 2   
4398 2   
4399 10  
4400 9   
4401 5   
4402 1   
4403 1   
4404 9   
4405 2   
4406 8   
4407 9   
4408 10  
4409 8   
4410 69  
4411 10  
4412 6   
4413 8   
4414 4   
4415 8   
4416 96  
4417 1   
4418 9   
4419 4   
4420 8   
4421 7   
4422 5   
4423 81  
4424 3   
4425 9   
4426 1   
4427 3   
4428 9   
4429 1   
4430 2   
4431 5   
4432 4   
4433 6   
4434 1   
4435 5   
4436 8   
4437 3   
4438 1   
4439 60  
4440 4   
4441 4   
4442 10  
4443 85  
4444 1   
4445 3   
4446 100 
4447 3   
4448 4   
4449 7   
4450 10  
4451 6   
4452 1   
4453 8   
4454 61  
4455 2   
4456 81  
4457 7   
4458 1   
4459 8   
4460 6   
4461 5   
4462 10  
4463 3   
4464 3   
4465 70  
4466 3   
4467 75  
4468 5   
4469 6   
4470 10  
4471 5   
4472 9   
4473 5   
4474 10  
4475 61  
4476 4   
4477 7   
4478 6   
4479 2   
4480 88  
4481 65  
4482 3   
4483 4   
4484 9   
4485 2   
4486 4   
4487 10  
4488 61  
4489 93  
4490 3   
4491 5   
4492 88  
4493 1   
4494 9   
4495 5   
4496 3   
4497 2   
4498 4   
4499 10  
4500 5   
4501 72  
4502 7   
4503 86  
4504 7   
4505 7   
4506 2   
4507 4   
4508 51  
4509 1   
4510 6   
4511 60  
4512 3   
4513 7   
4514 6   
4515 6   
4516 7   
4517 7   
4518 3   
4519 76  
4520 6   
4521 4   
4522 1   
4523 54  
4524 4   
4525 7   
4526 5   
4527 8   
4528 10  
4529 1   
4530 9   
4531 5   
4532 3   
4533 6   
4534 6   
4535 10  
4536 9   
4537 7   
4538 9   
4539 88  
4540 71  
4541 2   
4542 3   
4543 3   
4544 7   
4545 76  
4546 3   
4547 10  
4548 4   
4549 7   
4550 10  
4551 2   
4552 4   
4553 2   
4554 2   
4555 4   
4556 87  
4557 7   
4558 1   
4559 9   
4560 1   
4561 59  
4562 69  
4563 10  
4564 4   
4565 6   
4566 99  
4567 87  
4568 1   
4569 1   
4570 5   
4571 98  
4572 3   
4573 1   
4574 3   
4575 1   
4576 2   
4577 3   
4578 3   
4579 6   
4580 3   
4581 8   
4582 99  
4583 10  
4584 82  
4585 2   
4586 94  
4587 3   
4588 59  
4589 9   
4590 5   
4591 7   
4592 6   
4593 64  
4594 8   
4595 59  
4596 71  
4597 73  
4598 7   
4599 81  
4600 1   
4601 5   
4602 2   
4603 5   
4604 72  
4605 3   
4606 9   
4607 83  
4608 99  
4609 7   
4610 2   
4611 9   
4612 5   
4613 56  
4614 4   
4615 5   
4616 80  
4617 5   
4618 6   
4619 8   
4620 6   
4621 6   
4622 5   
4623 96  
4624 3   
4625 54  
4626 3   
4627 10  
4628 81  
4629 10  
4630 4   
4631 2   
4632 1   
4633 1   
4634 10  
4635 7   
4636 95  
4637 82  
4638 4   
4639 3   
4640 10  
4641 3   
4642 10  
4643 52  
4644 7   
4645 1   
4646 1   
4647 5   
4648 10  
4649 10  
4650 6   
4651 6   
4652 6   
4653 8   
4654 1   
4655 10  
4656 8   
4657 4   
4658 9   
4659 69  
4660 2   
4661 5   
4662 100 
4663 8   
4664 1   
4665 6   
4666 9   
4667 2   
4668 5   
4669 1   
4670 6   
4671 8   
4672 3   
4673 8   
4674 6   
4675 3   
4676 5   
4677 1   
4678 5   
4679 4   
4680 6   
4681 5   
4682 7   
4683 5   
4684 1   
4685 99  
4686 98  
4687 1   
4688 1   
4689 5   
4690 2   
4691 5   
4692 3   
4693 54  
4694 4   
4695 84  
4696 10  
4697 4   
4698 2   
4699 5   
4700 2   
4701 2   
4702 7   
4703 5   
4704 70  
4705 10  
4706 76  
4707 10  
4708 10  
4709 2   
4710 97  
4711 3   
4712 7   
4713 7   
4714 2   
4715 3   
4716 6   
4717 59  
4718 7   
4719 4   
4720 97  
4721 2   
4722 5   
4723 4   
4724 5   
4725 8   
4726 10  
4727 1   
4728 10  
4729 10  
4730 1   
4731 10  
4732 9   
4733 71  
4734 9   
4735 8   
4736 6   
4737 9   
4738 8   
4739 1   
4740 2   
4741 2   
4742 8   
4743 81  
4744 2   
4745 3   
4746 10  
4747 1   
4748 9   
4749 2   
4750 4   
4751 5   
4752 7   
4753 6   
4754 8   
4755 6   
4756 7   
4757 10  
4758 100 
4759 4   
4760 50  
4761 2   
4762 9   
4763 1   
4764 3   
4765 10  
4766 1   
4767 10  
4768 1   
4769 6   
4770 84  
4771 3   
4772 10  
4773 2   
4774 9   
4775 1   
4776 4   
4777 58  
4778 5   
4779 10  
4780 6   
4781 4   
4782 8   
4783 6   
4784 9   
4785 5   
4786 8   
4787 56  
4788 62  
4789 9   
4790 8   
4791 9   
4792 68  
4793 8   
4794 3   
4795 6   
4796 2   
4797 5   
4798 94  
4799 2   
4800 64  
4801 4   
4802 6   
4803 1   
4804 4   
4805 5   
4806 4   
4807 65  
4808 4   
4809 4   
4810 10  
4811 7   
4812 7   
4813 7   
4814 2   
4815 4   
4816 3   
4817 4   
4818 2   
4819 8   
4820 10  
4821 7   
4822 98  
4823 4   
4824 8   
4825 9   
4826 9   
4827 1   
4828 8   
4829 8   
4830 2   
4831 4   
4832 60  
4833 7   
4834 2   
4835 8   
4836 5   
4837 10  
4838 6   
4839 7   
4840 6   
4841 5   
4842 1   
4843 4   
4844 6   
4845 4   
4846 91  
4847 6   
4848 10  
4849 2   
4850 6   
4851 1   
4852 2   
4853 86  
4854 4   
4855 2   
4856 64  
4857 10  
4858 3   
4859 100 
4860 6   
4861 8   
4862 7   
4863 9   
4864 7   
4865 7   
4866 4   
4867 1   
4868 8   
4869 74  
4870 4   
4871 77  
4872 8   
4873 1   
4874 8   
4875 1   
4876 4   
4877 7   
4878 5   
4879 62  
4880 4   
4881 93  
4882 66  
4883 59  
4884 3   
4885 6   
4886 4   
4887 5   
4888 5   
4889 9   
4890 93  
4891 81  
4892 6   
4893 4   
4894 9   
4895 9   
4896 9   
4897 6   
4898 9   
4899 10  
4900 8   
4901 5   
4902 4   
4903 2   
4904 9   
4905 7   
4906 8   
4907 5   
4908 94  
4909 8   
4910 10  
4911 84  
4912 7   
4913 3   
4914 10  
4915 4   
4916 82  
4917 3   
4918 10  
4919 10  
4920 9   
4921 10  
4922 10  
4923 3   
4924 5   
4925 4   
4926 10  
4927 6   
4928 7   
4929 10  
4930 5   
4931 10  
4932 2   
4933 4   
4934 2   
4935 2   
4936 10  
4937 1   
4938 8   
4939 72  
4940 10  
4941 3   
4942 7   
4943 4   
4944 7   
4945 4   
4946 93  
4947 93  
4948 10  
4949 5   
4950 9   
4951 10  
4952 10  
4953 3   
4954 10  
4955 9   
4956 3   
4957 6   
4958 7   
4959 2   
4960 9   
4961 56  
4962 1   
4963 2   
4964 2   
4965 9   
4966 2   
4967 63  
4968 10  
4969 7   
4970 4   
4971 5   
4972 58  
4973 77  
4974 7   
4975 1   
4976 1   
4977 8   
4978 61  
4979 2   
4980 7   
4981 7   
4982 7   
4983 10  
4984 5   
4985 2   
4986 93  
4987 1   
4988 5   
4989 8   
4990 3   
4991 78  
4992 6   
4993 7   
4994 4   
4995 10  
4996 4   
4997 56  
4998 10  
4999 10  
5000 8   
5001 78  
DEPOT_SECTION
1
-1
EOF
