NAME : XML10000_2223_01
COMMENT : Generated as the XML100 dataset from the CVRPLIB
TYPE : CVRP
DIMENSION : 10001
EDGE_WEIGHT_TYPE : EUC_2D
CAPACITY : 45
NODE_COORD_SECTION
1    5000 5000
2    6281 3226
3    6508 1593
4    7439 5023
5    6202 9027
6    7650 8087
7    7653 9934
8    3260 3764
9    4366 3540
10   4437 2348
11   7601 7460
12   4253 2097
13   357  9695
14   8122 7933
15   7664 9320
16   6373 8114
17   252  6358
18   8399 8104
19   8694 9256
20   1641 7845
21   4063 2293
22   9485 4288
23   8083 8158
24   7012 6483
25   5369 2431
26   1320 9397
27   1193 7472
28   7439 5767
29   5551 3694
30   7560 6191
31   8866 8807
32   7645 9234
33   6954 4683
34   1247 6674
35   3472 2788
36   5691 3407
37   1126 8988
38   4707 2654
39   8030 5622
40   3571 2094
41   7924 4637
42   8841 4689
43   883  8695
44   8455 7944
45   5599 267 
46   752  8804
47   4778 2375
48   4110 3460
49   4971 2786
50   8267 9180
51   555  3670
52   312  7873
53   6963 9813
54   7705 2365
55   4560 3307
56   7448 9565
57   6623 8745
58   4244 2785
59   4399 3179
60   6680 8610
61   9012 5384
62   102  3589
63   7243 7696
64   8625 9426
65   4634 2659
66   6578 9980
67   7385 7343
68   4469 2508
69   996  8385
70   541  8720
71   8348 8261
72   7939 8003
73   590  9651
74   535  8694
75   4185 1734
76   8295 5127
77   854  3197
78   8822 5451
79   606  2854
80   6837 3886
81   290  6847
82   9649 5546
83   5400 3440
84   5416 3914
85   5579 1690
86   4301 3806
87   1077 8977
88   8314 8624
89   4549 2775
90   6665 4038
91   7727 4815
92   8115 5384
93   6557 9777
94   7005 9651
95   4577 2811
96   7501 8058
97   4656 1922
98   8301 8529
99   8513 6205
100  8128 5659
101  8381 4455
102  9932 6017
103  258  3410
104  4848 2281
105  4586 2698
106  6977 5863
107  7440 7929
108  7637 6475
109  9226 7972
110  1518 8050
111  81   3467
112  7919 5578
113  7546 7743
114  6580 7718
115  161  2919
116  7454 8222
117  4954 3027
118  1136 4715
119  8316 5278
120  6466 4457
121  1639 7576
122  472  9178
123  222  2859
124  8219 5607
125  7232 9605
126  8227 9710
127  1285 7710
128  5382 2724
129  1067 8362
130  822  7586
131  3892 3960
132  8945 4609
133  4936 2215
134  8398 8840
135  6493 1254
136  5639 2662
137  8573 5666
138  228  3989
139  6350 6460
140  3009 1848
141  1935 8182
142  6775 9701
143  7877 9643
144  8003 5365
145  4809 2666
146  4754 1181
147  3906 3000
148  8100 9761
149  381  8091
150  709  7344
151  8936 6283
152  1600 3948
153  7581 8204
154  4555 1717
155  2990 2516
156  593  8465
157  7629 8448
158  3830 3704
159  1675 4811
160  7998 5411
161  7700 9119
162  7594 3417
163  6880 9132
164  7600 5394
165  4912 2896
166  9    7598
167  6619 5529
168  2755 2632
169  8316 7093
170  828  3348
171  8072 8338
172  68   4342
173  7811 4893
174  8059 8104
175  115  9344
176  539  8478
177  789  8147
178  8990 7171
179  3285 2140
180  101  8978
181  8446 5302
182  586  9240
183  9292 8543
184  483  7342
185  1359 4411
186  8689 5692
187  7716 7524
188  273  2721
189  5363 2445
190  4401 2158
191  7398 5326
192  8365 6465
193  7449 7601
194  4139 3646
195  579  758 
196  4534 2810
197  8011 8054
198  8060 4674
199  7428 6965
200  750  3252
201  423  9519
202  7686 4832
203  537  4268
204  3733 3305
205  607  8985
206  4019 3776
207  7745 9963
208  7840 7997
209  8376 5418
210  1388 8936
211  7176 8068
212  821  9497
213  53   7546
214  9739 9438
215  8663 8881
216  9392 4030
217  353  8497
218  230  8729
219  8021 9791
220  7702 5513
221  6906 8292
222  7301 8515
223  944  7793
224  1389 8547
225  308  7903
226  7981 5327
227  726  2682
228  7721 7273
229  3327 2650
230  4148 2283
231  7816 9610
232  420  8272
233  271  7086
234  288  3886
235  5018 9609
236  659  8344
237  233  7761
238  5431 1900
239  8024 9631
240  639  9057
241  286  8667
242  7682 9789
243  4409 1931
244  7885 8290
245  687  4279
246  3795 1810
247  6683 7160
248  630  8812
249  8259 7863
250  752  789 
251  4814 2133
252  4312 2177
253  347  8930
254  8698 4332
255  7692 8021
256  8033 6348
257  9661 9567
258  3788 2035
259  790  3438
260  7776 5799
261  6699 7873
262  1447 4720
263  817  8441
264  8701 5421
265  6129 4826
266  7369 9701
267  5771 2290
268  477  4142
269  5556 8653
270  4004 1927
271  6095 7832
272  4904 2891
273  777  4055
274  9149 9997
275  160  5220
276  6846 9746
277  4516 2560
278  949  6261
279  5793 6377
280  8392 8396
281  4003 2240
282  8388 8050
283  2601 2826
284  966  8122
285  7432 9070
286  287  2098
287  4909 2115
288  7497 7785
289  8403 4632
290  1292 9380
291  2270 8454
292  719  9047
293  6328 7622
294  686  9458
295  6262 9125
296  5031 3225
297  7037 8407
298  8964 8566
299  1586 2952
300  7601 9838
301  911  3599
302  1891 6767
303  8157 7196
304  8308 9471
305  6952 8288
306  8978 5115
307  7436 9528
308  3425 3141
309  404  7946
310  7597 6389
311  6857 4315
312  5414 7079
313  3962 2491
314  8621 8525
315  7410 9262
316  7742 9655
317  7869 8213
318  206  2797
319  8127 9233
320  4860 2786
321  874  8474
322  1027 9296
323  5165 3007
324  590  8822
325  8641 6649
326  8759 3818
327  5385 2260
328  4171 1768
329  8277 8865
330  152  2776
331  4274 1503
332  800  3324
333  7438 8470
334  4024 3411
335  7849 9601
336  9320 5022
337  8236 5279
338  8935 2302
339  1455 4488
340  1620 7497
341  7952 5135
342  5760 6470
343  5322 3383
344  4346 3920
345  5779 2698
346  7624 5584
347  862  3577
348  9634 6609
349  6218 5162
350  648  2166
351  1187 7806
352  8522 4987
353  7919 8750
354  2602 6921
355  6400 2038
356  6786 7346
357  970  6352
358  9645 5338
359  7435 7610
360  7598 9262
361  8628 5874
362  1886 3769
363  7671 8742
364  8155 8304
365  247  4367
366  8602 4768
367  5140 1822
368  1666 1815
369  7129 5901
370  3326 3047
371  8361 9677
372  45   8407
373  3915 3491
374  5029 2359
375  9072 9990
376  8537 6256
377  1695 9863
378  8472 7804
379  1041 8554
380  8460 9145
381  4403 2681
382  6    2167
383  8204 5104
384  6878 7832
385  8497 7399
386  7343 8417
387  527  8491
388  675  8850
389  6067 7862
390  8566 4267
391  6863 8268
392  5741 2668
393  9830 6632
394  5183 3442
395  7878 4704
396  757  8611
397  4373 3044
398  8073 5375
399  9293 8585
400  8148 4910
401  7479 8327
402  7978 8930
403  8424 7758
404  8034 5404
405  700  4797
406  8973 8249
407  1345 4272
408  4170 3436
409  7587 8318
410  6146 3521
411  449  9152
412  8741 9794
413  446  4013
414  5342 2426
415  3404 3608
416  8036 5388
417  5909 3568
418  8029 5604
419  4404 2071
420  8377 7792
421  7423 9725
422  599  2143
423  8941 9016
424  8314 6138
425  9400 7025
426  7808 4845
427  7693 9575
428  7844 6449
429  7225 9484
430  3689 2898
431  28   4057
432  1474 3258
433  7588 7309
434  7700 5139
435  4051 2677
436  8060 5169
437  7450 9824
438  8195 9217
439  8287 9647
440  2301 1920
441  7587 7132
442  8398 4320
443  7833 9295
444  4718 2516
445  8188 7353
446  3440 785 
447  505  6616
448  4739 4449
449  1347 2804
450  2770 2416
451  662  2884
452  4167 927 
453  2760 2214
454  8860 5063
455  3584 9954
456  921  8688
457  1260 9307
458  8359 8848
459  8127 8884
460  7386 9292
461  8595 4267
462  240  9515
463  4667 4577
464  3242 5200
465  5873 4340
466  8082 9840
467  8172 9220
468  4353 2502
469  5055 9154
470  7975 9771
471  3167 939 
472  6860 5312
473  7341 4195
474  4852 4289
475  8105 5566
476  636  3616
477  5659 2691
478  8455 7061
479  7285 9423
480  7560 6572
481  2632 9964
482  8877 5209
483  4666 2208
484  8316 9021
485  4896 6413
486  7553 8207
487  708  4368
488  7488 9552
489  8147 9123
490  9108 6523
491  1380 2429
492  8109 9485
493  8130 6388
494  2563 9682
495  4146 2246
496  6851 7238
497  4749 3529
498  790  3100
499  7560 7973
500  6259 9918
501  13   8620
502  7919 5470
503  3819 3817
504  8207 4960
505  1120 3372
506  4618 3791
507  2862 7937
508  7954 8838
509  7368 5466
510  8064 5505
511  2660 3389
512  7887 5174
513  564  8470
514  8748 7950
515  2900 4643
516  6612 7551
517  7387 8658
518  7970 5227
519  7774 7101
520  6025 7594
521  4235 2746
522  8241 8887
523  713  8403
524  3932 2405
525  9236 4663
526  9853 9949
527  7277 4664
528  517  2544
529  5075 5543
530  85   3650
531  8321 7697
532  5084 3912
533  8347 4912
534  8730 2559
535  39   3493
536  5590 3782
537  8099 5607
538  5473 8875
539  8304 6470
540  1429 8655
541  7328 5365
542  238  8560
543  6922 8010
544  1526 9083
545  7901 7033
546  967  5878
547  7788 4970
548  8703 5148
549  3862 1657
550  7981 4642
551  2725 2896
552  1391 8948
553  7707 9394
554  7122 7940
555  7548 5442
556  720  4143
557  8136 8348
558  4751 2224
559  4486 2532
560  8804 6259
561  6571 8831
562  7797 8900
563  6653 8343
564  7928 8845
565  6943 5368
566  8084 5519
567  4044 2729
568  8631 5426
569  4    2890
570  9310 6401
571  6252 9679
572  5161 4032
573  1112 8326
574  7256 8805
575  924  3311
576  2450 454 
577  7761 8620
578  7865 5992
579  7690 9334
580  4101 2718
581  682  4392
582  9653 9199
583  7677 8498
584  7461 8106
585  8702 9333
586  3487 2409
587  8431 8707
588  8543 9669
589  7898 6716
590  6584 7737
591  624  9076
592  7552 7881
593  490  8794
594  4287 2268
595  7841 8952
596  6153 2464
597  7721 6487
598  7883 5978
599  675  4306
600  8301 4904
601  6540 5771
602  7725 4372
603  1508 2749
604  8864 4699
605  9131 9732
606  8322 4446
607  6091 7747
608  8119 8745
609  7406 8858
610  7870 8799
611  316  2446
612  7871 8930
613  6986 9335
614  7616 7998
615  2305 4810
616  1428 3569
617  33   8991
618  2308 7882
619  133  3237
620  8095 7187
621  9343 6405
622  8288 9368
623  7097 7097
624  4796 9891
625  270  3142
626  7867 4781
627  6880 4875
628  251  8241
629  4825 5134
630  1286 8066
631  3966 2526
632  7673 8009
633  8027 5910
634  3984 2380
635  4539 2420
636  7844 9480
637  7722 8560
638  71   8973
639  8342 3898
640  7711 8760
641  3814 2925
642  6551 8236
643  4646 2363
644  9372 4858
645  6185 3128
646  2185 9197
647  8525 9836
648  7080 8866
649  8561 9865
650  201  3457
651  6707 8264
652  8075 5867
653  7094 8502
654  317  8180
655  1054 6525
656  9422 5670
657  7990 6173
658  840  3865
659  6654 6700
660  8327 9347
661  7633 4649
662  2216 7863
663  5319 9601
664  5303 2507
665  7054 9977
666  2311 8729
667  7319 7797
668  374  3272
669  1159 8825
670  516  3162
671  6897 9366
672  5540 6392
673  4140 3037
674  7834 6521
675  4547 3045
676  7987 5480
677  5837 8973
678  8947 4507
679  9354 4345
680  1766 7060
681  1195 2613
682  553  3352
683  7994 5874
684  2513 4328
685  7280 9737
686  8898 8417
687  6654 7702
688  7541 5354
689  7018 9531
690  3948 2397
691  7313 8266
692  7565 9593
693  8750 4659
694  1211 7897
695  9097 5014
696  957  2485
697  9020 6625
698  6942 9063
699  8106 9596
700  8423 6761
701  1753 4055
702  6956 5714
703  7491 5343
704  8199 5872
705  1018 7300
706  8055 8780
707  3972 2314
708  7888 8421
709  8058 8925
710  6832 5379
711  7939 5333
712  8004 9517
713  7768 4162
714  9828 6677
715  167  3243
716  4542 3193
717  875  7951
718  7291 9725
719  5186 3504
720  1749 8951
721  8880 5949
722  4896 2534
723  7362 8694
724  5406 2416
725  4605 2488
726  9916 8544
727  8326 4474
728  4372 2902
729  8520 4994
730  414  2126
731  1243 3122
732  5990 2698
733  8507 4748
734  685  4613
735  7807 5818
736  5176 1508
737  6524 8322
738  8518 5388
739  750  2729
740  6366 9369
741  1106 4373
742  9542 5348
743  8103 9749
744  8395 8228
745  7803 9851
746  8540 5975
747  7819 5856
748  1033 7914
749  569  8672
750  8120 9123
751  3546 1607
752  306  3572
753  8123 5974
754  4279 1927
755  4810 4875
756  6749 6397
757  4371 2716
758  8987 3157
759  7522 5715
760  8601 6085
761  8872 9643
762  4837 6449
763  7083 8060
764  660  3947
765  8364 9061
766  7670 9490
767  6922 8820
768  7561 4965
769  7196 5324
770  7023 8954
771  97   8511
772  7838 7515
773  9061 6905
774  7559 7123
775  199  3109
776  7718 5876
777  375  8769
778  543  8281
779  343  8615
780  1431 8580
781  3248 2022
782  8155 7703
783  8455 7445
784  9120 8536
785  6006 1146
786  8214 5523
787  645  2361
788  459  2842
789  236  8626
790  8833 6406
791  9405 9325
792  1061 3549
793  7184 9105
794  8119 9075
795  6202 5615
796  8906 8058
797  608  8681
798  1107 8727
799  9364 4868
800  9321 9734
801  2690 5297
802  234  4585
803  797  8593
804  5939 2066
805  32   3062
806  7910 5447
807  1629 3731
808  6583 4491
809  3743 3131
810  7485 6189
811  7884 9565
812  8851 8746
813  8303 9423
814  8014 8982
815  4657 1839
816  4080 1798
817  4676 3337
818  967  8423
819  7370 8466
820  8603 5456
821  8846 7308
822  8661 8062
823  152  9100
824  6912 5374
825  8614 5523
826  6603 7656
827  7613 9065
828  381  3198
829  6939 6514
830  7570 7143
831  7033 8909
832  4040 2930
833  5228 1835
834  7432 8197
835  7407 5007
836  6527 7391
837  7788 9800
838  1195 4375
839  4766 4522
840  4514 3544
841  188  3271
842  1618 7614
843  6653 8592
844  1159 3444
845  237  3969
846  27   7898
847  7522 7625
848  1282 2793
849  8116 4056
850  7287 5323
851  5455 2494
852  4777 2595
853  9369 7058
854  1656 6076
855  4270 2464
856  874  3997
857  9621 6444
858  8073 5176
859  3932 3288
860  7885 9943
861  8511 7113
862  7676 9442
863  4193 2571
864  7379 9003
865  8763 5654
866  7387 7995
867  83   4102
868  45   9265
869  7338 7928
870  803  9641
871  3086 2787
872  80   8588
873  143  3409
874  7226 4181
875  7841 9398
876  5740 9486
877  8152 8861
878  8055 3158
879  5509 5959
880  7762 9358
881  9695 9530
882  8387 5215
883  8569 9870
884  936  4167
885  21   3091
886  330  3454
887  180  3416
888  7874 5739
889  412  8809
890  862  8689
891  7277 7111
892  7482 5808
893  1802 5152
894  862  4839
895  3806 1966
896  6738 7941
897  5425 1464
898  4551 2469
899  675  7856
900  8413 8910
901  1303 9115
902  555  4743
903  4228 3335
904  6153 315 
905  2246 3559
906  7830 9083
907  421  8402
908  9206 6544
909  7218 7729
910  8459 4259
911  661  2782
912  9452 9266
913  201  8454
914  7392 8386
915  7579 6208
916  4854 3543
917  1356 3118
918  662  4507
919  3962 1213
920  8193 9938
921  9480 8574
922  5290 983 
923  362  9756
924  7571 9983
925  8724 9335
926  7004 7830
927  137  1513
928  9051 9862
929  6709 7742
930  7541 5033
931  3022 2516
932  5826 8152
933  6584 6900
934  8050 6989
935  849  5939
936  8300 6650
937  8425 4630
938  7335 5348
939  4743 2718
940  7443 8182
941  1601 8330
942  8081 9373
943  441  2822
944  8720 4866
945  7105 7887
946  1818 3806
947  707  8924
948  4285 4002
949  17   2615
950  6285 4894
951  8659 3959
952  8644 9858
953  3645 2949
954  1035 2285
955  7712 9920
956  7597 8430
957  7007 6798
958  7147 8182
959  7720 5234
960  7513 4500
961  8508 8602
962  6863 8997
963  6290 6654
964  7862 4032
965  1267 6645
966  3677 4326
967  1257 2767
968  517  8587
969  7032 9188
970  7229 7318
971  2    4362
972  7881 9195
973  4662 3261
974  2090 9121
975  8162 8888
976  4459 2130
977  2775 4188
978  8716 4890
979  8242 7077
980  4676 1489
981  8803 8459
982  6622 8182
983  1013 7492
984  500  8455
985  8366 8719
986  7731 9644
987  8429 8959
988  7022 8267
989  8010 8876
990  50   2271
991  5839 4241
992  271  8017
993  7475 9608
994  1780 8656
995  1901 8772
996  8067 4746
997  3094 2857
998  8670 7384
999  9468 8915
1000 1151 8220
1001 9772 2690
1002 8458 8616
1003 281  3326
1004 4555 1348
1005 997  3722
1006 4328 3146
1007 8392 5672
1008 6692 7606
1009 8957 9667
1010 8033 7498
1011 9968 3417
1012 7997 9508
1013 7820 3132
1014 7272 6053
1015 3416 3317
1016 512  7933
1017 8278 6288
1018 2148 3022
1019 749  4135
1020 9074 7966
1021 3546 5606
1022 5304 5546
1023 7005 7860
1024 7704 7119
1025 7700 7996
1026 6341 8282
1027 6647 9871
1028 6431 1677
1029 3825 2294
1030 7590 7859
1031 5984 2938
1032 8351 7751
1033 4581 2597
1034 7948 7814
1035 6288 8942
1036 8992 4099
1037 3787 2191
1038 7769 5288
1039 7670 7925
1040 5995 4390
1041 3571 2856
1042 8359 6638
1043 6687 7598
1044 6382 8769
1045 6054 7031
1046 7374 4323
1047 1302 8192
1048 4951 2610
1049 406  2686
1050 8473 5463
1051 441  8477
1052 6669 5836
1053 2576 7652
1054 6443 9180
1055 8568 5870
1056 919  8527
1057 8198 7601
1058 752  9292
1059 4965 2539
1060 1403 9007
1061 613  8561
1062 579  7575
1063 5151 3407
1064 3884 3475
1065 8449 7205
1066 8127 3586
1067 6961 7948
1068 1212 8795
1069 7799 8198
1070 425  8135
1071 4651 1485
1072 7563 7363
1073 4592 2683
1074 688  2543
1075 8447 8469
1076 4530 2576
1077 275  3714
1078 75   2484
1079 7983 9000
1080 7014 4012
1081 477  8025
1082 8109 5215
1083 859  8803
1084 6959 7501
1085 7400 7916
1086 434  3352
1087 5418 2418
1088 121  3911
1089 1743 8540
1090 752  8123
1091 8075 7311
1092 6774 8124
1093 5159 861 
1094 7877 9507
1095 434  1495
1096 8143 7857
1097 7556 4487
1098 7052 6087
1099 8219 8880
1100 4649 1597
1101 4728 2318
1102 7426 7875
1103 7074 6978
1104 7840 4670
1105 7130 8883
1106 9063 4808
1107 9896 4517
1108 7360 7798
1109 9046 9410
1110 1500 8971
1111 4282 1917
1112 6250 9158
1113 233  8060
1114 7066 7778
1115 8609 5682
1116 911  4797
1117 6718 208 
1118 8428 8342
1119 1557 9334
1120 214  2427
1121 5543 1798
1122 7813 8591
1123 6275 5129
1124 103  2941
1125 7788 8233
1126 6671 5168
1127 8009 9856
1128 4749 1186
1129 7401 5076
1130 8426 5543
1131 8061 8566
1132 1640 7827
1133 8606 7710
1134 9142 9227
1135 2153 8044
1136 8072 9935
1137 7285 7828
1138 283  9025
1139 7484 5643
1140 5481 8002
1141 6106 9270
1142 600  4400
1143 456  9237
1144 5007 8577
1145 5151 3085
1146 7970 5678
1147 7374 3798
1148 2515 1768
1149 4824 3902
1150 7629 9932
1151 6333 6599
1152 8596 9197
1153 8564 7351
1154 744  8919
1155 8040 9753
1156 4315 2393
1157 8600 5200
1158 7750 5081
1159 48   8085
1160 3783 2378
1161 433  8497
1162 5908 7662
1163 3821 3020
1164 6992 9943
1165 7367 9956
1166 245  3113
1167 9090 1110
1168 4788 2758
1169 9328 4313
1170 1702 9445
1171 8491 9936
1172 9412 5308
1173 1311 2685
1174 6267 7739
1175 3755 3019
1176 8161 8474
1177 8617 7178
1178 8003 8991
1179 1316 7572
1180 4610 2052
1181 8355 1470
1182 9270 7593
1183 8864 7077
1184 8519 5500
1185 322  9467
1186 994  3600
1187 8778 5598
1188 4346 3102
1189 8152 4397
1190 8349 4205
1191 714  3926
1192 2106 8238
1193 4682 3083
1194 7675 5209
1195 7908 9668
1196 197  8474
1197 7351 8556
1198 4451 3950
1199 7793 4975
1200 3978 2539
1201 3972 3462
1202 8543 5650
1203 1285 8780
1204 8391 9368
1205 328  8485
1206 7840 5271
1207 6429 9403
1208 8584 6435
1209 4894 2330
1210 246  3728
1211 6713 1498
1212 1020 8143
1213 1569 3848
1214 649  8196
1215 7216 7700
1216 7519 7317
1217 2280 6373
1218 8873 7609
1219 6765 5162
1220 4050 3115
1221 7594 5160
1222 6863 5400
1223 8363 9448
1224 3308 1901
1225 7005 5708
1226 7639 8789
1227 8139 6392
1228 5520 3438
1229 8926 9299
1230 6869 4556
1231 4506 2956
1232 6927 8702
1233 8531 5018
1234 790  3376
1235 6862 8973
1236 5824 8678
1237 9525 8650
1238 5311 183 
1239 7535 6409
1240 8687 3600
1241 7927 3367
1242 1011 8405
1243 7975 4437
1244 9668 8646
1245 8745 7382
1246 8527 4351
1247 2782 6205
1248 7320 8398
1249 7560 7975
1250 599  8283
1251 1159 7560
1252 7716 9470
1253 3863 2791
1254 894  7366
1255 898  9274
1256 1378 9114
1257 7332 6332
1258 7746 9203
1259 4373 5755
1260 6929 2439
1261 281  8146
1262 1540 3825
1263 6970 5244
1264 8264 9524
1265 1150 3787
1266 4658 2578
1267 441  8834
1268 8774 8804
1269 7    3374
1270 87   8581
1271 7111 8364
1272 7331 8893
1273 829  3588
1274 6445 7167
1275 7943 9588
1276 7463 7770
1277 7775 8741
1278 7668 4020
1279 5174 3315
1280 2751 2651
1281 7630 8428
1282 4253 2977
1283 1893 7521
1284 5010 2504
1285 4335 2789
1286 6696 6117
1287 7709 9532
1288 461  8237
1289 8836 5160
1290 702  4535
1291 8196 6075
1292 6010 2050
1293 4976 4129
1294 8324 9493
1295 8004 8447
1296 257  5344
1297 1457 5455
1298 92   8165
1299 672  2742
1300 8073 9762
1301 7873 7684
1302 7124 7699
1303 539  8962
1304 8128 8182
1305 9480 8109
1306 8846 6323
1307 290  8712
1308 6532 4868
1309 207  8139
1310 9266 5609
1311 9600 8543
1312 286  1939
1313 932  8660
1314 4935 2519
1315 4844 2835
1316 751  8929
1317 5019 2948
1318 4675 3622
1319 7435 9237
1320 221  1276
1321 4559 3316
1322 816  8137
1323 1414 5194
1324 3554 3028
1325 2386 7524
1326 7180 5104
1327 9063 7691
1328 7416 9035
1329 9716 5198
1330 7905 4500
1331 8639 8769
1332 6874 6872
1333 8246 7746
1334 3592 2424
1335 3143 2587
1336 8398 8344
1337 2834 1255
1338 6435 8430
1339 7118 7947
1340 7399 8826
1341 8698 8279
1342 7780 6738
1343 6866 5723
1344 6899 2341
1345 4582 2254
1346 8052 8813
1347 569  4597
1348 5793 3841
1349 282  2962
1350 8437 3193
1351 8188 5169
1352 6965 9211
1353 370  8664
1354 7121 8639
1355 5686 907 
1356 546  7822
1357 7278 5032
1358 5162 8354
1359 563  8530
1360 8968 5133
1361 2751 8623
1362 5158 1603
1363 8384 7921
1364 464  8379
1365 8464 4544
1366 2008 8814
1367 316  3526
1368 8317 5478
1369 6717 6609
1370 8697 5515
1371 8285 5405
1372 7742 5856
1373 1121 3641
1374 7840 9998
1375 7304 6998
1376 7197 4704
1377 7614 7376
1378 8932 6239
1379 39   3983
1380 7433 7394
1381 9800 6250
1382 8342 5166
1383 488  8574
1384 5719 1397
1385 7673 5166
1386 7538 8287
1387 8555 6200
1388 4160 2947
1389 7753 6214
1390 7339 6854
1391 6832 8912
1392 9819 4827
1393 530  7621
1394 4168 1909
1395 7326 9867
1396 547  9597
1397 5477 9787
1398 7035 7647
1399 7645 6222
1400 5947 4028
1401 9337 8727
1402 8034 5350
1403 1042 9366
1404 269  2317
1405 7077 7467
1406 7091 7994
1407 4546 2625
1408 9416 4937
1409 7075 8456
1410 9414 6836
1411 7872 9296
1412 3894 1351
1413 1194 4449
1414 9137 8346
1415 2959 2714
1416 4664 2771
1417 130  3164
1418 4748 3392
1419 8540 5591
1420 8158 5890
1421 4362 1486
1422 454  9272
1423 5266 2664
1424 424  7855
1425 7308 8776
1426 1303 7923
1427 854  2402
1428 2998 1666
1429 6386 9296
1430 6814 9610
1431 827  3139
1432 99   8485
1433 8620 9698
1434 792  7837
1435 1331 2771
1436 2198 7224
1437 8437 4695
1438 8753 5844
1439 1927 7004
1440 9054 6329
1441 97   8885
1442 7913 9728
1443 347  3095
1444 4285 4253
1445 7511 5215
1446 7778 4617
1447 7783 6700
1448 7688 9950
1449 2031 4136
1450 98   7717
1451 7986 9227
1452 1389 8309
1453 8345 5865
1454 5230 4503
1455 7928 8149
1456 7328 5312
1457 1795 7299
1458 9341 8052
1459 7892 5863
1460 4181 6040
1461 5749 5519
1462 8324 4892
1463 3034 2356
1464 5013 2304
1465 3883 5535
1466 36   3054
1467 124  5736
1468 7835 9840
1469 7434 7631
1470 8948 6695
1471 5028 2499
1472 3225 1570
1473 1640 9680
1474 1790 8346
1475 4096 2425
1476 8541 5076
1477 3182 3469
1478 1384 2356
1479 7987 5071
1480 4584 3779
1481 7436 7886
1482 6939 7598
1483 7888 5022
1484 7650 8021
1485 508  8578
1486 7830 7561
1487 1987 2185
1488 4022 3474
1489 8028 8802
1490 8161 3850
1491 3507 1943
1492 2091 2713
1493 2284 2614
1494 8072 7204
1495 7290 9519
1496 5869 7810
1497 7934 5877
1498 7916 5408
1499 6475 7555
1500 7464 5300
1501 8073 5598
1502 8179 7907
1503 3552 9034
1504 7390 7070
1505 7520 8253
1506 7735 5689
1507 1165 8620
1508 6931 4486
1509 262  3014
1510 6611 7889
1511 8052 9441
1512 6863 6090
1513 551  2884
1514 884  9372
1515 1319 3583
1516 6269 4622
1517 7627 8050
1518 1063 8904
1519 8086 9854
1520 441  9099
1521 6953 9614
1522 8119 5264
1523 8513 6860
1524 9010 8728
1525 4136 2623
1526 4453 1332
1527 2404 8312
1528 851  8151
1529 3864 1387
1530 931  2788
1531 428  8726
1532 8859 6915
1533 3016 3737
1534 7575 5636
1535 8252 4165
1536 128  3699
1537 244  7966
1538 5371 1735
1539 6876 7343
1540 838  8386
1541 7984 4794
1542 370  2697
1543 6004 2725
1544 8122 4632
1545 8731 7802
1546 8323 9150
1547 7027 8399
1548 7822 9978
1549 7367 8491
1550 1043 9866
1551 7948 4380
1552 7766 4607
1553 7970 7408
1554 8211 5459
1555 7454 9397
1556 7864 9115
1557 6652 7196
1558 8088 9487
1559 3459 6869
1560 8939 7264
1561 117  3331
1562 5223 5413
1563 1957 9212
1564 584  3696
1565 7706 8172
1566 3298 2042
1567 476  8657
1568 4067 2538
1569 8212 5086
1570 8724 5598
1571 7535 7169
1572 1848 4014
1573 569  8480
1574 734  8240
1575 458  9057
1576 7776 5064
1577 917  2695
1578 8088 5951
1579 4577 2911
1580 635  4472
1581 7988 5461
1582 7985 5888
1583 552  2080
1584 8518 6829
1585 56   8363
1586 7545 9040
1587 4673 1722
1588 410  8005
1589 5587 4258
1590 1115 7140
1591 6017 5148
1592 482  8866
1593 8853 4518
1594 6712 7627
1595 72   8378
1596 4808 450 
1597 477  8701
1598 3108 7909
1599 9019 5167
1600 1344 4536
1601 5308 2659
1602 7900 8065
1603 5893 2266
1604 6828 7997
1605 4976 5439
1606 663  3409
1607 8232 8919
1608 7471 8444
1609 51   9287
1610 236  8487
1611 8275 4113
1612 7204 5581
1613 592  3062
1614 7539 9327
1615 7583 8948
1616 5013 3121
1617 3934 3666
1618 7847 9513
1619 4610 2247
1620 8979 4637
1621 1026 3944
1622 5507 1591
1623 7223 8916
1624 4508 3202
1625 426  8151
1626 7648 7560
1627 1240 7194
1628 3871 2526
1629 2638 3805
1630 8063 8680
1631 2387 3463
1632 630  3793
1633 163  9258
1634 8427 5347
1635 7578 8520
1636 1030 8753
1637 7675 7331
1638 3078 2408
1639 8021 9787
1640 6343 5606
1641 387  3467
1642 7311 7754
1643 8115 9325
1644 4317 1379
1645 7980 5238
1646 6085 7012
1647 6879 9672
1648 4892 2763
1649 6680 8380
1650 4670 2900
1651 2334 4223
1652 187  3723
1653 7092 486 
1654 7714 8356
1655 9691 3901
1656 8617 5632
1657 7802 4590
1658 844  3527
1659 6881 9499
1660 8348 9603
1661 7905 5103
1662 515  5426
1663 7739 9700
1664 5905 8506
1665 1031 9053
1666 6696 8506
1667 8170 9640
1668 4574 2170
1669 3700 1689
1670 9227 4293
1671 8024 8813
1672 556  8144
1673 4517 1634
1674 8406 9535
1675 614  3086
1676 7280 9617
1677 7175 7078
1678 790  6821
1679 4651 2205
1680 4827 3184
1681 3670 5034
1682 4389 2697
1683 7640 6173
1684 6994 5891
1685 994  8392
1686 4894 4541
1687 1303 4098
1688 5934 3244
1689 7164 8251
1690 1599 1603
1691 8072 9104
1692 5876 8462
1693 7041 7192
1694 7761 8169
1695 419  7939
1696 6244 9299
1697 495  2804
1698 6929 9821
1699 3636 1652
1700 9396 7936
1701 3904 6065
1702 1041 7967
1703 2096 7515
1704 7001 6644
1705 7918 9780
1706 8592 9714
1707 4    3646
1708 993  8290
1709 1960 4718
1710 1086 3916
1711 550  3602
1712 606  4693
1713 8191 9363
1714 6374 9066
1715 571  2986
1716 3711 4086
1717 3762 3625
1718 820  3887
1719 8814 9463
1720 8365 5783
1721 6603 6693
1722 9187 9837
1723 2137 3335
1724 8462 6318
1725 4493 1449
1726 8641 9300
1727 8327 9801
1728 7385 8240
1729 5328 2608
1730 598  7983
1731 6790 7413
1732 6972 8328
1733 704  7633
1734 3391 4667
1735 7941 5619
1736 8836 7481
1737 7683 8592
1738 6952 8292
1739 7181 5978
1740 1000 8252
1741 7013 8508
1742 7244 7817
1743 7163 7990
1744 933  1865
1745 7915 4583
1746 7414 9762
1747 352  8693
1748 4059 2011
1749 6883 5570
1750 8234 9386
1751 9705 9141
1752 8777 8476
1753 7990 9299
1754 1240 3000
1755 997  7926
1756 1460 1489
1757 158  2439
1758 7476 9264
1759 64   2593
1760 5424 2022
1761 5172 1944
1762 8156 4841
1763 732  3203
1764 3906 2464
1765 7313 9731
1766 5143 3061
1767 4996 1686
1768 5045 1543
1769 8029 5370
1770 8769 6264
1771 191  8797
1772 8217 5329
1773 2020 8228
1774 5076 3339
1775 3912 3412
1776 8673 9732
1777 4385 1860
1778 18   4851
1779 909  4008
1780 179  8075
1781 7761 8879
1782 2864 3601
1783 395  1891
1784 9312 8626
1785 5118 2780
1786 7456 4144
1787 8461 4755
1788 7265 5373
1789 5204 9520
1790 7775 8235
1791 5784 3997
1792 7571 8819
1793 8138 8373
1794 8100 8780
1795 8659 6187
1796 7828 4654
1797 8173 7652
1798 371  8462
1799 4766 2710
1800 6416 7957
1801 7682 8569
1802 7733 5964
1803 7456 6952
1804 6856 9083
1805 8141 9524
1806 8459 4333
1807 7609 5451
1808 6126 7492
1809 1744 1859
1810 1066 8454
1811 8370 9390
1812 7670 9867
1813 9348 9780
1814 8558 7607
1815 8124 9650
1816 1275 1876
1817 748  5453
1818 2186 7693
1819 7524 9540
1820 4011 3836
1821 1139 9080
1822 8322 6176
1823 9461 8330
1824 4395 3151
1825 7308 6442
1826 8765 4753
1827 8147 8330
1828 4388 2844
1829 7973 8938
1830 294  3851
1831 6005 7127
1832 4564 1889
1833 8318 5154
1834 8668 5480
1835 7812 6316
1836 8732 5409
1837 8368 6073
1838 1095 7703
1839 4394 2091
1840 7228 9161
1841 4399 1926
1842 9266 5599
1843 4169 2789
1844 4832 2083
1845 5052 2028
1846 653  2378
1847 4584 3780
1848 792  8627
1849 7647 7566
1850 7590 9268
1851 7411 9485
1852 5748 7154
1853 447  9630
1854 1399 7853
1855 7678 6072
1856 4630 864 
1857 8134 5276
1858 8243 6023
1859 4541 3359
1860 7253 7255
1861 7626 7854
1862 4869 6421
1863 8221 5176
1864 7788 7191
1865 8221 8004
1866 4524 2614
1867 4380 2406
1868 357  2507
1869 1054 8715
1870 3892 2141
1871 7974 3138
1872 601  8673
1873 1151 2590
1874 8656 5138
1875 7680 7996
1876 7909 4108
1877 726  8178
1878 2060 7281
1879 4124 2049
1880 8093 8056
1881 517  8034
1882 590  8543
1883 5491 2584
1884 4694 2305
1885 8183 6436
1886 4278 2836
1887 728  2440
1888 1019 2203
1889 5094 3658
1890 446  7959
1891 6405 9518
1892 6417 4441
1893 723  3712
1894 9026 4719
1895 6458 7640
1896 8533 5465
1897 4910 3612
1898 1387 8874
1899 4773 3021
1900 8205 8713
1901 4426 2428
1902 3714 2717
1903 7487 8819
1904 7595 7647
1905 464  3223
1906 7073 7588
1907 435  866 
1908 8233 5613
1909 8086 9474
1910 8375 9631
1911 113  9020
1912 7975 5401
1913 932  8227
1914 848  8248
1915 7924 2811
1916 6921 8315
1917 9512 8833
1918 7659 8098
1919 6888 7019
1920 9217 5488
1921 794  9481
1922 593  8468
1923 649  7568
1924 1476 8887
1925 4473 4116
1926 8915 5120
1927 7107 8583
1928 7792 9267
1929 860  8998
1930 7798 9045
1931 7185 4882
1932 6967 4765
1933 3604 3083
1934 9941 3999
1935 952  3255
1936 4874 5149
1937 7700 9646
1938 7089 9732
1939 7837 5744
1940 606  8524
1941 7258 7886
1942 3737 4414
1943 2555 4244
1944 3451 3726
1945 6714 9719
1946 6661 7852
1947 5424 3383
1948 7570 8412
1949 6424 5314
1950 3871 3060
1951 6601 902 
1952 963  8280
1953 3655 3058
1954 6235 9382
1955 8202 8568
1956 890  2564
1957 5104 4814
1958 7615 8028
1959 8099 6063
1960 3267 2882
1961 814  8426
1962 4473 2749
1963 7867 9075
1964 7481 9114
1965 774  8884
1966 546  8911
1967 7333 5921
1968 4551 2359
1969 6982 7237
1970 8584 7128
1971 741  8752
1972 7500 6309
1973 443  4583
1974 4592 4335
1975 2881 3082
1976 7671 9581
1977 193  8193
1978 7647 7903
1979 7015 9141
1980 6729 8846
1981 719  3063
1982 1865 4628
1983 8318 5385
1984 11   6563
1985 7095 6153
1986 6077 9131
1987 4294 2956
1988 3545 2325
1989 8096 5731
1990 712  3022
1991 7851 5060
1992 378  9303
1993 3791 4416
1994 6540 8313
1995 8806 5883
1996 7112 8134
1997 9944 4918
1998 6772 4452
1999 7681 6145
2000 8655 5164
2001 7026 8195
2002 7858 8076
2003 8873 5556
2004 7553 5783
2005 174  8228
2006 7600 9086
2007 241  4096
2008 5146 2275
2009 5213 5461
2010 7735 9218
2011 5690 8389
2012 899  8585
2013 3910 3480
2014 1829 8181
2015 6488 7466
2016 8741 9022
2017 6460 2981
2018 8049 8754
2019 5462 1272
2020 8772 5702
2021 8595 3443
2022 8116 5282
2023 7531 5395
2024 7468 7779
2025 8440 9790
2026 8841 4481
2027 576  5460
2028 4069 3284
2029 4194 2230
2030 3856 4117
2031 5466 6992
2032 7968 4707
2033 8390 7578
2034 8592 9112
2035 4904 3398
2036 296  3791
2037 4144 2763
2038 8313 8356
2039 7822 8958
2040 2166 7990
2041 8353 8635
2042 557  3301
2043 8979 9903
2044 7646 9066
2045 8804 7682
2046 4506 4464
2047 622  8680
2048 3213 2390
2049 3400 2339
2050 2109 8295
2051 9092 8425
2052 8532 4438
2053 6456 7526
2054 5447 5414
2055 7662 9281
2056 6177 3015
2057 7298 5466
2058 8216 5533
2059 7702 8941
2060 1629 4211
2061 8435 8024
2062 7062 5887
2063 376  1704
2064 3935 1640
2065 5220 582 
2066 6231 4959
2067 7456 8820
2068 7935 9572
2069 8235 6085
2070 968  1900
2071 8910 9970
2072 8467 9220
2073 771  9054
2074 8108 8792
2075 524  8254
2076 9015 5676
2077 4593 3418
2078 7051 9647
2079 5574 1712
2080 144  7057
2081 7733 7860
2082 6129 8264
2083 922  3679
2084 8645 8206
2085 4578 3065
2086 7685 6307
2087 277  8950
2088 1555 7313
2089 7647 8145
2090 6716 4129
2091 5128 4188
2092 9131 8563
2093 4342 3680
2094 6934 7587
2095 106  9099
2096 8295 9402
2097 7336 9313
2098 2468 7663
2099 1246 6210
2100 4551 4632
2101 7299 8321
2102 4470 3120
2103 7970 5054
2104 6846 8458
2105 4636 2721
2106 7688 4882
2107 8255 9570
2108 7582 8350
2109 3855 4489
2110 6762 7222
2111 1436 3737
2112 4859 3392
2113 4505 2909
2114 6662 7890
2115 762  7643
2116 8511 5498
2117 125  6422
2118 7082 8033
2119 7722 4800
2120 5143 699 
2121 4827 5244
2122 8267 8147
2123 7199 7879
2124 5780 3672
2125 7915 9206
2126 8118 6662
2127 7893 9489
2128 8423 5864
2129 7764 7629
2130 7968 9718
2131 8370 8630
2132 9998 5770
2133 8034 9545
2134 8869 7659
2135 224  3182
2136 7428 8292
2137 172  8019
2138 5050 1119
2139 7132 7407
2140 4445 3607
2141 7416 5538
2142 4838 7382
2143 5127 2225
2144 6467 9316
2145 7322 7982
2146 712  3938
2147 3320 2215
2148 6919 8474
2149 332  3667
2150 1333 7300
2151 995  8860
2152 734  3199
2153 2759 4212
2154 6841 8235
2155 8598 9495
2156 8043 8100
2157 7281 4970
2158 4705 1645
2159 8449 4656
2160 8503 4605
2161 4277 2760
2162 407  3924
2163 2579 8971
2164 4939 2160
2165 9471 6056
2166 992  8404
2167 8257 5367
2168 7464 5684
2169 7660 9508
2170 2067 8268
2171 1004 6506
2172 146  9653
2173 7378 6733
2174 1399 7536
2175 9085 8520
2176 8713 3798
2177 6864 9628
2178 4546 2363
2179 7370 8924
2180 5064 2212
2181 8041 5319
2182 1566 4012
2183 8530 8054
2184 4997 2704
2185 6392 2599
2186 7782 6781
2187 4751 2977
2188 4529 1900
2189 777  7922
2190 9111 5508
2191 7312 7781
2192 4370 1595
2193 8337 5313
2194 563  8270
2195 1099 8192
2196 7498 6991
2197 8200 5011
2198 285  9644
2199 7620 9292
2200 8131 7204
2201 564  3225
2202 299  3467
2203 7800 5426
2204 5553 7943
2205 7855 9375
2206 7495 5106
2207 7376 9591
2208 8276 9258
2209 549  3380
2210 8133 9071
2211 5935 4122
2212 7904 5724
2213 1277 8871
2214 5270 2235
2215 7935 9872
2216 0    8775
2217 1771 2784
2218 4389 2973
2219 7883 8007
2220 7809 7800
2221 9706 5182
2222 7798 8953
2223 6092 8302
2224 1486 9130
2225 7614 7438
2226 7783 8027
2227 8713 7971
2228 6245 9593
2229 4137 2013
2230 8094 5951
2231 1908 7142
2232 6987 9234
2233 7199 8225
2234 7997 7473
2235 6913 9646
2236 284  8866
2237 7959 7925
2238 1983 6914
2239 1190 9174
2240 7617 9141
2241 6773 4444
2242 7751 4903
2243 8341 8318
2244 461  8817
2245 4926 3103
2246 7659 8249
2247 7540 4817
2248 1546 8572
2249 8337 9455
2250 96   3457
2251 6462 7212
2252 6581 9807
2253 1333 8700
2254 7981 9779
2255 6733 7081
2256 7463 5622
2257 540  7628
2258 7442 7840
2259 8319 7686
2260 8734 4922
2261 263  3054
2262 6831 7863
2263 8326 5853
2264 251  4184
2265 9596 8055
2266 7723 6134
2267 1188 9179
2268 8783 5864
2269 115  2838
2270 7287 7396
2271 7847 7841
2272 4022 2362
2273 8281 5708
2274 365  2598
2275 8315 5776
2276 4317 1772
2277 8800 5003
2278 8088 9344
2279 5252 2942
2280 991  3135
2281 342  6910
2282 2914 3293
2283 280  8424
2284 8390 4777
2285 893  8436
2286 6023 3175
2287 4970 1593
2288 4680 2335
2289 1057 2994
2290 5778 2854
2291 7826 4851
2292 8043 6267
2293 8886 4829
2294 9681 4400
2295 583  9449
2296 4679 2612
2297 8637 4977
2298 7958 3643
2299 8111 8222
2300 8586 3628
2301 7401 9097
2302 7438 8710
2303 7038 8990
2304 3982 3017
2305 8654 8552
2306 9315 5624
2307 8451 5039
2308 7500 7375
2309 7992 6428
2310 1089 8464
2311 3953 2208
2312 8061 6997
2313 6852 5115
2314 7255 5762
2315 5349 2862
2316 765  5589
2317 8173 8509
2318 9598 5593
2319 6536 7888
2320 542  5127
2321 3983 2798
2322 6918 6190
2323 6376 2466
2324 7831 6251
2325 5390 2875
2326 8061 7095
2327 4040 4390
2328 1479 9053
2329 383  8053
2330 8034 6852
2331 7199 8125
2332 1753 9950
2333 3356 2513
2334 466  3547
2335 4480 3405
2336 7778 7873
2337 5283 3411
2338 8291 5637
2339 714  8357
2340 8321 6851
2341 8421 7985
2342 7267 9300
2343 7170 5514
2344 6726 6914
2345 6355 8236
2346 4457 2431
2347 7614 4830
2348 310  8769
2349 8254 8507
2350 7482 8822
2351 8044 6409
2352 239  3318
2353 83   7785
2354 7472 7429
2355 7768 8434
2356 6910 2145
2357 7925 5403
2358 2730 627 
2359 181  8093
2360 120  3130
2361 7663 9099
2362 4864 1418
2363 6161 5754
2364 7790 8264
2365 6375 8643
2366 7242 7429
2367 8601 4651
2368 8682 7422
2369 8138 9682
2370 8187 5797
2371 6563 1287
2372 8343 8781
2373 1691 3868
2374 8095 8252
2375 6845 9414
2376 7615 4649
2377 5467 3698
2378 256  3501
2379 444  7523
2380 391  9508
2381 7588 4314
2382 8562 8093
2383 4608 2056
2384 1009 8721
2385 187  8509
2386 1213 7487
2387 7140 6065
2388 3382 4367
2389 7133 4064
2390 4330 3155
2391 7043 3796
2392 919  9059
2393 4677 3066
2394 4142 2703
2395 7876 4576
2396 1415 2868
2397 8959 5703
2398 1137 2666
2399 7896 8198
2400 8232 9224
2401 9395 9813
2402 5246 5350
2403 288  8347
2404 4148 2869
2405 907  7842
2406 5109 2462
2407 9647 6507
2408 5174 1542
2409 1420 8610
2410 5865 4001
2411 4829 2707
2412 8123 8117
2413 7090 8440
2414 3819 3357
2415 4502 3954
2416 8635 7006
2417 6791 7331
2418 7082 6181
2419 7491 9261
2420 3384 1489
2421 8522 5072
2422 7548 7983
2423 7652 9790
2424 1041 3525
2425 3471 2615
2426 7933 8224
2427 7134 6358
2428 730  8296
2429 8316 8450
2430 8478 9375
2431 6333 7908
2432 3807 3016
2433 4046 2704
2434 7925 9697
2435 3950 4036
2436 8940 7372
2437 4863 2853
2438 9003 6679
2439 4739 2397
2440 7311 8196
2441 6441 6528
2442 8901 6175
2443 7741 5853
2444 9308 5910
2445 641  7375
2446 7726 3867
2447 4882 3418
2448 699  4017
2449 7647 8205
2450 5076 2153
2451 8217 8884
2452 6570 3990
2453 6855 6199
2454 7104 3298
2455 8141 9921
2456 8504 9160
2457 9423 4181
2458 8801 4590
2459 530  3236
2460 4516 3675
2461 288  9868
2462 8511 5090
2463 4598 4043
2464 2344 3259
2465 7979 5331
2466 4904 1572
2467 135  2947
2468 3809 2296
2469 8138 4857
2470 7889 5346
2471 4588 3440
2472 591  2643
2473 781  4298
2474 782  8581
2475 8358 5532
2476 8045 7611
2477 2171 8324
2478 7960 5666
2479 5865 9713
2480 3773 1592
2481 7946 8033
2482 6938 3629
2483 484  8690
2484 1118 8887
2485 9567 8443
2486 685  3185
2487 3793 1808
2488 1191 9524
2489 568  8670
2490 7262 8655
2491 8540 9163
2492 5780 8856
2493 7692 5682
2494 5898 3854
2495 4495 2173
2496 7489 4380
2497 8513 4640
2498 1035 9113
2499 270  3563
2500 8978 3021
2501 8107 7953
2502 7014 8711
2503 7228 7518
2504 3894 1124
2505 8381 8321
2506 8471 8821
2507 8330 9621
2508 255  9077
2509 3727 1904
2510 1215 2496
2511 7013 7592
2512 7835 5196
2513 9020 5654
2514 425  3388
2515 5589 8707
2516 6634 8277
2517 801  7976
2518 4610 2189
2519 8696 6327
2520 8197 7446
2521 8109 7454
2522 1265 3792
2523 8143 7662
2524 597  3726
2525 6872 7454
2526 4020 3084
2527 8235 9278
2528 4821 2171
2529 8014 5497
2530 7925 7294
2531 962  4159
2532 5285 2630
2533 147  3377
2534 270  4198
2535 307  3151
2536 9048 9155
2537 9559 9493
2538 561  9656
2539 4742 9144
2540 6083 8838
2541 7602 8873
2542 4931 1594
2543 8471 5133
2544 3326 2680
2545 4417 2584
2546 4555 3870
2547 7003 8205
2548 5836 3730
2549 8394 5364
2550 4797 3086
2551 9089 6848
2552 535  8606
2553 8510 6831
2554 23   8298
2555 1147 8622
2556 271  4259
2557 8508 6903
2558 3127 2551
2559 7231 5530
2560 734  8426
2561 8702 8543
2562 9622 9288
2563 365  9085
2564 439  2741
2565 6660 7476
2566 1731 9037
2567 7898 7357
2568 7864 5125
2569 595  8891
2570 1575 3301
2571 7371 6452
2572 7777 9888
2573 8445 5509
2574 6562 6621
2575 359  3104
2576 874  3908
2577 602  8212
2578 8140 7744
2579 664  6502
2580 3252 3969
2581 7058 8305
2582 4867 1980
2583 7508 8563
2584 7043 5543
2585 850  3092
2586 8115 5566
2587 7996 3775
2588 8576 5295
2589 8393 5173
2590 7634 3140
2591 5875 3695
2592 7209 9248
2593 8560 9680
2594 7513 8158
2595 9526 8024
2596 8330 7370
2597 7967 7923
2598 8143 9699
2599 6723 3637
2600 8725 7908
2601 4310 3371
2602 4021 2002
2603 827  4983
2604 2394 9524
2605 3159 3350
2606 529  7200
2607 8115 6670
2608 7365 5267
2609 7338 6584
2610 28   4000
2611 117  4044
2612 9723 5468
2613 7069 5595
2614 4037 2793
2615 6943 9230
2616 7760 7453
2617 8262 6041
2618 1547 7449
2619 8830 8999
2620 8046 8360
2621 8915 4318
2622 3182 4118
2623 7318 5152
2624 2988 2816
2625 3444 2593
2626 7980 5080
2627 849  2627
2628 4560 1434
2629 9136 6617
2630 7920 8774
2631 7890 5101
2632 7390 7905
2633 8948 5721
2634 607  9351
2635 1581 8792
2636 179  3301
2637 1832 8926
2638 8591 8836
2639 8328 5776
2640 7269 9416
2641 7956 4688
2642 7981 6412
2643 7852 5268
2644 1331 8195
2645 4014 2901
2646 4801 2620
2647 8680 9808
2648 691  5995
2649 8027 5518
2650 279  9419
2651 8646 8181
2652 515  8062
2653 7590 9588
2654 7223 4283
2655 427  8751
2656 7008 4342
2657 1048 8275
2658 7677 7399
2659 6265 7838
2660 881  8582
2661 7779 9046
2662 5596 3499
2663 8658 9873
2664 5994 8565
2665 4091 2409
2666 5104 620 
2667 4207 2201
2668 606  8046
2669 1250 1854
2670 130  3553
2671 4125 2966
2672 7213 5640
2673 451  8272
2674 7652 2677
2675 5309 3204
2676 6840 7649
2677 8419 4836
2678 8871 8311
2679 8137 7367
2680 5336 4093
2681 7507 8646
2682 7469 9219
2683 3959 2588
2684 301  3481
2685 2947 1559
2686 8207 9013
2687 7657 9443
2688 3168 2866
2689 4512 3239
2690 8410 8521
2691 8831 8012
2692 7339 9755
2693 7385 9239
2694 1077 5561
2695 135  8774
2696 817  8705
2697 8084 5899
2698 1476 2317
2699 9248 4582
2700 7578 5457
2701 4071 3368
2702 259  7608
2703 527  8845
2704 5033 2209
2705 8448 8281
2706 5269 1282
2707 4523 3715
2708 6526 6987
2709 6490 7333
2710 1125 4820
2711 5366 2790
2712 748  7050
2713 6955 8080
2714 9024 7483
2715 7312 8297
2716 952  7622
2717 140  1580
2718 9001 5937
2719 8636 9248
2720 3747 7898
2721 232  3312
2722 7714 5073
2723 77   3709
2724 7435 8275
2725 222  8077
2726 1208 8436
2727 7986 9377
2728 8283 9179
2729 643  8515
2730 8458 7879
2731 6435 7893
2732 5406 2268
2733 4884 2663
2734 535  7637
2735 7408 7791
2736 1168 3407
2737 974  8520
2738 7926 7060
2739 167  7726
2740 7952 8779
2741 8375 4592
2742 8188 8785
2743 315  5403
2744 8099 9440
2745 180  8661
2746 7533 8804
2747 8319 9967
2748 7793 5300
2749 746  7314
2750 2858 6775
2751 8165 5537
2752 7975 8456
2753 2043 8727
2754 7667 8767
2755 8025 7421
2756 3556 5253
2757 8055 4962
2758 5799 6098
2759 4695 2938
2760 9815 1914
2761 3796 2011
2762 4217 1520
2763 8401 4947
2764 789  8346
2765 395  8663
2766 1280 7652
2767 478  9348
2768 7698 9354
2769 5843 1576
2770 7259 9594
2771 8700 9604
2772 7231 5095
2773 8134 5237
2774 75   4692
2775 4300 875 
2776 3328 2591
2777 7479 8065
2778 936  1648
2779 8027 7836
2780 226  7187
2781 7628 8032
2782 7776 8216
2783 119  1900
2784 9939 5367
2785 3901 2480
2786 1217 2079
2787 7399 5699
2788 609  9155
2789 7360 8244
2790 9163 5929
2791 8411 5132
2792 655  8362
2793 7183 7463
2794 6097 5772
2795 6845 6371
2796 7776 5481
2797 1095 8482
2798 233  8506
2799 3716 2954
2800 552  9292
2801 1388 8741
2802 4550 2135
2803 324  8214
2804 7669 4528
2805 5284 1944
2806 5345 3241
2807 6595 7590
2808 1225 7878
2809 612  8363
2810 7440 6087
2811 7542 9879
2812 8290 6972
2813 1495 2571
2814 6574 8569
2815 8479 8133
2816 9193 6352
2817 489  8563
2818 6963 8084
2819 365  8822
2820 332  9793
2821 350  6926
2822 6606 7084
2823 7705 8301
2824 330  3643
2825 6807 6511
2826 8733 7459
2827 3919 3674
2828 8892 7795
2829 4404 3149
2830 508  8997
2831 437  8597
2832 1033 9076
2833 424  9196
2834 7818 6771
2835 4674 2410
2836 7788 5566
2837 9187 4006
2838 7111 2263
2839 4117 3022
2840 7443 7814
2841 8538 7898
2842 7414 4059
2843 824  8444
2844 3239 3034
2845 7926 8272
2846 3081 3549
2847 5165 1649
2848 17   2582
2849 505  8783
2850 8117 8235
2851 7975 8381
2852 7157 5874
2853 5285 4008
2854 866  8784
2855 7326 7009
2856 798  8597
2857 9053 6003
2858 8902 9482
2859 7102 5832
2860 4935 2116
2861 5209 3246
2862 3251 1622
2863 7416 7521
2864 5844 3332
2865 4116 2192
2866 4182 2553
2867 5901 6115
2868 193  9712
2869 7922 5403
2870 8163 7979
2871 7993 9836
2872 5454 2299
2873 8090 8464
2874 9691 5442
2875 5014 2335
2876 7677 7891
2877 7579 6738
2878 4296 2834
2879 303  8903
2880 3931 2568
2881 7670 5116
2882 879  1605
2883 7449 9788
2884 7837 8699
2885 371  8693
2886 3831 4402
2887 244  8087
2888 6683 8922
2889 866  7507
2890 4866 2793
2891 1094 3868
2892 345  7987
2893 7052 7756
2894 7621 8077
2895 7494 6293
2896 2544 2646
2897 1306 8376
2898 9590 9111
2899 7150 9445
2900 8352 5167
2901 7679 4617
2902 1015 7370
2903 11   9058
2904 8123 4921
2905 1571 9078
2906 5028 1956
2907 894  8413
2908 7614 5105
2909 7286 8892
2910 1482 5248
2911 6191 7511
2912 4771 2243
2913 1381 3179
2914 9133 6158
2915 777  8470
2916 807  4473
2917 7334 8034
2918 639  9976
2919 4706 2092
2920 816  3317
2921 1587 3053
2922 8    4733
2923 6387 2380
2924 7410 8565
2925 510  3783
2926 4441 809 
2927 3711 2081
2928 4789 1107
2929 8650 5320
2930 32   3099
2931 6604 8916
2932 8805 6276
2933 7790 8167
2934 2159 3101
2935 9877 3018
2936 6841 5333
2937 2042 2604
2938 166  8676
2939 8330 8554
2940 7971 8586
2941 8047 9237
2942 8556 7929
2943 6590 680 
2944 8387 4764
2945 8739 9445
2946 7795 8319
2947 845  8919
2948 4313 2974
2949 222  3279
2950 7356 8299
2951 8075 7903
2952 199  3325
2953 9050 5862
2954 145  4241
2955 281  636 
2956 7335 5513
2957 8465 5445
2958 3845 2538
2959 8143 5922
2960 7110 8737
2961 7729 9547
2962 7046 8919
2963 8251 5445
2964 7370 9667
2965 4462 2098
2966 7589 9134
2967 9296 5806
2968 2910 2596
2969 8530 9512
2970 7090 8321
2971 916  9680
2972 8902 4135
2973 904  9068
2974 6890 8786
2975 7437 9809
2976 6987 8718
2977 4415 2750
2978 8693 5819
2979 789  8854
2980 7462 3420
2981 7521 9659
2982 390  8757
2983 9685 9027
2984 7190 7954
2985 951  8524
2986 310  8938
2987 7358 7643
2988 7396 8042
2989 4795 3918
2990 27   3727
2991 7676 6807
2992 1635 8129
2993 3932 2281
2994 3949 3141
2995 719  3594
2996 8610 5442
2997 3268 7733
2998 373  2918
2999 180  8975
3000 4830 2500
3001 6486 4678
3002 8433 9444
3003 3394 3184
3004 813  9463
3005 8595 7815
3006 731  8742
3007 7532 8133
3008 75   8250
3009 7883 7105
3010 7952 4955
3011 6409 5649
3012 8241 8558
3013 3976 1177
3014 6560 7030
3015 26   3534
3016 3003 9236
3017 8136 7831
3018 7771 7640
3019 7805 7444
3020 7387 3948
3021 2723 9653
3022 7666 5405
3023 878  8725
3024 3452 2267
3025 3386 1593
3026 323  2117
3027 5169 2290
3028 8310 8771
3029 9101 9122
3030 4085 1429
3031 8101 7569
3032 7674 5184
3033 8733 5855
3034 5179 2873
3035 8265 4720
3036 8922 9456
3037 9056 4033
3038 6403 7874
3039 4960 820 
3040 4625 3234
3041 4930 3148
3042 4283 2846
3043 5034 2106
3044 7591 8118
3045 503  8397
3046 6357 7501
3047 1271 5657
3048 1588 3097
3049 724  8149
3050 8151 9803
3051 7858 5011
3052 7338 8346
3053 7749 7126
3054 661  4049
3055 8091 8674
3056 1037 8671
3057 8856 5717
3058 8414 9465
3059 7922 5185
3060 5722 2233
3061 8359 4462
3062 3659 2277
3063 625  4415
3064 991  4440
3065 8981 6795
3066 8648 8550
3067 4657 3044
3068 705  8120
3069 1024 9114
3070 7585 8599
3071 260  2875
3072 1113 8287
3073 5679 1652
3074 920  7792
3075 1186 2100
3076 7626 7474
3077 1781 7322
3078 3947 2370
3079 4561 3403
3080 4445 2421
3081 8442 8360
3082 7962 5310
3083 5757 1666
3084 5103 2823
3085 5097 8357
3086 4877 3988
3087 3981 2101
3088 7856 4708
3089 4188 3229
3090 7170 8264
3091 1133 5668
3092 459  3273
3093 3985 3307
3094 609  3748
3095 9038 6177
3096 279  8885
3097 7693 8604
3098 1282 2179
3099 6812 398 
3100 7748 5365
3101 4336 2867
3102 8667 9827
3103 8008 7107
3104 7820 8289
3105 6639 1625
3106 8603 8885
3107 4633 2566
3108 569  8806
3109 4255 2459
3110 166  8514
3111 753  2774
3112 4017 2243
3113 470  9054
3114 7930 5074
3115 577  3541
3116 5248 3476
3117 4854 3962
3118 235  3113
3119 4618 2156
3120 1470 8125
3121 8407 8757
3122 6340 7372
3123 7831 8769
3124 5471 6580
3125 5937 2321
3126 282  8217
3127 3420 2340
3128 8615 4512
3129 8180 7001
3130 6468 9427
3131 7865 8753
3132 7316 8213
3133 8259 8065
3134 3807 1837
3135 7367 6589
3136 4697 3511
3137 5890 2192
3138 8194 5126
3139 6540 5083
3140 6327 5777
3141 202  7911
3142 8409 8038
3143 806  8544
3144 4428 4741
3145 5282 2752
3146 5146 3891
3147 3915 2186
3148 48   8355
3149 1812 2624
3150 5186 1943
3151 5443 9336
3152 8084 7607
3153 703  3784
3154 9139 4410
3155 6271 6639
3156 8098 9708
3157 8178 7305
3158 4250 3097
3159 8296 8525
3160 7420 9949
3161 6    3466
3162 4254 1948
3163 459  8174
3164 4497 2221
3165 35   8465
3166 8996 6122
3167 4749 2679
3168 152  8893
3169 1496 7816
3170 9120 9743
3171 8095 6823
3172 8272 5155
3173 7422 9545
3174 8405 9277
3175 8013 8262
3176 3607 2418
3177 7281 7621
3178 7898 5941
3179 4237 2669
3180 7062 6509
3181 6440 6188
3182 6512 9353
3183 7095 3423
3184 7115 9506
3185 3768 3122
3186 7715 8651
3187 2191 8604
3188 347  3263
3189 8766 8900
3190 7196 8006
3191 9789 3803
3192 8033 5240
3193 3899 2849
3194 8592 9251
3195 7064 8068
3196 8130 7405
3197 1350 9111
3198 8895 5593
3199 6910 9209
3200 8352 6184
3201 3920 1738
3202 6193 2684
3203 926  8238
3204 4940 3149
3205 6725 9510
3206 8161 5817
3207 4751 3071
3208 9098 7093
3209 381  3330
3210 7920 5845
3211 7811 8686
3212 1467 8733
3213 8160 8630
3214 8521 9952
3215 7220 7948
3216 7577 8676
3217 5003 5567
3218 9193 9256
3219 521  7939
3220 2225 8768
3221 417  2097
3222 8276 9378
3223 7255 9001
3224 6432 5106
3225 2983 4470
3226 4930 3077
3227 7947 6573
3228 9012 8845
3229 7535 7963
3230 504  8244
3231 127  7261
3232 774  4006
3233 3998 1902
3234 6831 7555
3235 5375 3630
3236 8571 5932
3237 5205 2499
3238 1087 4534
3239 1173 9951
3240 4884 2505
3241 1943 9167
3242 8172 9291
3243 7735 9473
3244 5506 3448
3245 26   2925
3246 7779 9105
3247 7946 9532
3248 4532 2851
3249 7734 9435
3250 8629 9591
3251 4222 2728
3252 5444 4044
3253 750  3695
3254 402  7743
3255 9078 5002
3256 4381 2715
3257 7863 9309
3258 8437 4126
3259 8855 5491
3260 7725 8195
3261 502  8627
3262 5023 2391
3263 7668 9487
3264 214  4586
3265 8316 5031
3266 8546 8369
3267 1184 8695
3268 2830 8971
3269 263  8814
3270 9456 8592
3271 9410 4572
3272 7141 8549
3273 8    3350
3274 7825 4939
3275 859  3441
3276 7886 5807
3277 3632 687 
3278 7641 7203
3279 684  3240
3280 721  8453
3281 7560 7618
3282 3904 2671
3283 8478 9044
3284 8832 9230
3285 7210 6515
3286 482  3828
3287 5756 4431
3288 7900 5627
3289 1175 3482
3290 5507 8752
3291 8375 5062
3292 4297 2822
3293 3884 1672
3294 1039 4859
3295 9040 9982
3296 4443 1753
3297 474  4502
3298 5202 3386
3299 2120 2163
3300 9253 7253
3301 1502 6721
3302 7189 7125
3303 4937 3284
3304 251  4364
3305 7825 6228
3306 7858 7793
3307 8383 8598
3308 5276 1531
3309 4744 1244
3310 443  3967
3311 7349 6471
3312 8565 5362
3313 1365 9587
3314 250  3131
3315 841  2676
3316 462  3801
3317 4255 2929
3318 7048 8126
3319 517  3289
3320 4520 2610
3321 4782 5294
3322 4176 2260
3323 7391 7806
3324 4564 5071
3325 8145 5134
3326 7668 4241
3327 9040 9125
3328 7397 9228
3329 488  8543
3330 315  2923
3331 1128 9127
3332 1622 9483
3333 8115 9716
3334 4776 2042
3335 7852 6946
3336 6708 9146
3337 87   8063
3338 5814 3791
3339 7860 8480
3340 2492 4948
3341 7856 5952
3342 841  9041
3343 7600 4691
3344 6769 7731
3345 9019 8027
3346 7763 2535
3347 9128 8373
3348 485  8045
3349 7043 7059
3350 4293 4316
3351 1390 9634
3352 147  9364
3353 794  3692
3354 8084 8718
3355 5063 2324
3356 7194 8760
3357 8252 9924
3358 8546 8563
3359 6391 7401
3360 400  3279
3361 6183 8252
3362 913  3067
3363 7816 7631
3364 223  8649
3365 8655 9141
3366 4210 3108
3367 930  8525
3368 7440 8896
3369 7967 4952
3370 335  3110
3371 7703 9921
3372 1181 3619
3373 6835 5655
3374 6880 8483
3375 740  8096
3376 8127 7115
3377 177  3653
3378 674  9030
3379 7512 9000
3380 1067 8357
3381 419  3572
3382 3832 2990
3383 1200 6262
3384 5342 8028
3385 7548 9261
3386 7824 6136
3387 5641 1415
3388 897  3925
3389 9919 5703
3390 4845 3333
3391 3393 1167
3392 7253 8395
3393 4569 2742
3394 148  8268
3395 7355 4665
3396 9663 5007
3397 7873 2888
3398 830  3978
3399 58   9829
3400 4354 2820
3401 5702 73  
3402 5222 5215
3403 6003 7663
3404 4057 584 
3405 7562 9480
3406 529  3507
3407 8681 9492
3408 6105 7507
3409 574  3549
3410 9014 3954
3411 688  8597
3412 3672 1268
3413 9323 5229
3414 7669 9812
3415 885  8086
3416 2873 1657
3417 7477 7870
3418 164  1324
3419 599  7279
3420 6585 9699
3421 8724 4385
3422 3918 3355
3423 7372 7410
3424 1299 9228
3425 3357 1453
3426 7723 9263
3427 633  4996
3428 1155 8909
3429 3800 3897
3430 8294 8311
3431 1798 1773
3432 9148 4955
3433 742  2966
3434 1383 2583
3435 7398 5605
3436 728  7572
3437 6197 2173
3438 9062 4309
3439 1371 7943
3440 904  8807
3441 4467 2359
3442 214  3329
3443 538  4179
3444 8264 9530
3445 7566 7595
3446 650  2917
3447 7691 8357
3448 7155 7645
3449 2202 9626
3450 173  2832
3451 8338 8710
3452 770  8195
3453 8029 6392
3454 67   8061
3455 3893 8785
3456 3200 963 
3457 7698 1089
3458 8608 8826
3459 8079 7348
3460 203  3746
3461 314  8310
3462 4970 2604
3463 7983 8799
3464 7870 5846
3465 4249 2363
3466 7102 5401
3467 3907 3109
3468 7924 5591
3469 9515 7074
3470 242  3514
3471 248  5156
3472 4805 2319
3473 6894 7465
3474 4462 2786
3475 9710 8290
3476 8551 9367
3477 4544 3387
3478 7503 9752
3479 4174 2457
3480 554  8108
3481 5794 8951
3482 8067 7496
3483 1568 3978
3484 956  8315
3485 8006 9722
3486 7208 7012
3487 6178 7879
3488 6495 8083
3489 154  7990
3490 8652 8716
3491 9028 9627
3492 7661 6727
3493 131  3143
3494 7835 8201
3495 7791 2829
3496 7776 8815
3497 3525 3724
3498 9226 8627
3499 851  7544
3500 4217 2733
3501 7785 7089
3502 7867 5758
3503 7748 4607
3504 9000 9200
3505 316  9060
3506 4409 2756
3507 8337 5834
3508 8886 9914
3509 4207 2239
3510 7983 6958
3511 196  3476
3512 8377 7894
3513 4723 2453
3514 5984 3328
3515 4732 2525
3516 8152 9435
3517 2648 7568
3518 83   3746
3519 586  8846
3520 4825 2414
3521 7466 9347
3522 6960 9008
3523 6350 2367
3524 4511 2478
3525 298  1766
3526 367  9024
3527 990  3464
3528 9487 6465
3529 268  2450
3530 6835 9859
3531 952  8502
3532 721  4014
3533 1527 2552
3534 7413 9240
3535 7524 8071
3536 8593 9282
3537 6197 8521
3538 7664 2581
3539 8972 8921
3540 7789 5820
3541 6615 8282
3542 2893 4830
3543 6859 9432
3544 3318 4161
3545 9239 4141
3546 4372 2148
3547 7714 8878
3548 9026 8974
3549 8278 5473
3550 8106 6373
3551 1144 9266
3552 7245 8846
3553 1266 3418
3554 7670 9939
3555 572  7599
3556 7939 9104
3557 8104 9169
3558 6142 9241
3559 7466 8540
3560 3319 6591
3561 1214 8021
3562 8503 6155
3563 1965 1967
3564 8489 9244
3565 4805 3928
3566 7824 7969
3567 4514 2895
3568 4390 2042
3569 7160 7167
3570 6716 2296
3571 4821 1454
3572 560  8618
3573 343  3690
3574 685  8035
3575 8801 6545
3576 5176 3074
3577 316  8891
3578 8367 5737
3579 5670 7813
3580 8158 6253
3581 7320 5417
3582 6724 9789
3583 3452 3665
3584 222  3936
3585 7520 8538
3586 7624 5740
3587 8452 6171
3588 8017 4820
3589 7665 7253
3590 7821 5843
3591 3536 3143
3592 5125 3077
3593 7387 8056
3594 7701 8022
3595 8383 4837
3596 7666 4380
3597 568  8673
3598 9682 9143
3599 7784 8270
3600 7503 7416
3601 7419 9499
3602 5461 2171
3603 5584 3875
3604 6857 6595
3605 7732 6759
3606 4230 2553
3607 7870 4772
3608 7556 4628
3609 4212 1969
3610 6115 5442
3611 6927 8877
3612 286  8033
3613 6637 7481
3614 8257 9998
3615 7994 6108
3616 450  8417
3617 4934 7903
3618 7303 8509
3619 8468 5228
3620 1053 2451
3621 4911 2325
3622 7659 4604
3623 7425 6053
3624 7706 7646
3625 7655 9087
3626 5477 9691
3627 4702 3774
3628 6618 3853
3629 2994 2997
3630 7967 5152
3631 7495 5879
3632 6882 9523
3633 1395 8167
3634 5279 4280
3635 9046 9608
3636 8042 9818
3637 8017 7917
3638 8441 3784
3639 4402 3188
3640 3146 3202
3641 7466 8222
3642 7394 9811
3643 7575 8714
3644 8054 6235
3645 4902 1473
3646 9124 6276
3647 420  8017
3648 6197 8944
3649 8825 8194
3650 7846 4588
3651 8633 6184
3652 7022 1844
3653 103  8745
3654 7522 4135
3655 7917 7309
3656 2628 3475
3657 169  3220
3658 845  3481
3659 452  3665
3660 8142 5485
3661 7945 5835
3662 8013 7815
3663 8215 4815
3664 574  3268
3665 5148 4199
3666 8095 7872
3667 91   3139
3668 779  7795
3669 1158 2917
3670 10   7868
3671 6048 2908
3672 7317 9782
3673 922  4032
3674 8771 4247
3675 4043 2268
3676 645  8792
3677 51   2786
3678 984  3149
3679 1118 9189
3680 7993 9013
3681 129  8481
3682 6985 8300
3683 6568 5124
3684 996  7347
3685 699  8560
3686 231  4101
3687 6794 8925
3688 4133 3234
3689 4769 3002
3690 1739 1026
3691 7547 8294
3692 8813 8731
3693 98   4096
3694 7265 8583
3695 1548 1787
3696 8869 7563
3697 7495 8154
3698 8835 8982
3699 7234 8033
3700 4887 2996
3701 8162 5152
3702 7726 8097
3703 8557 4444
3704 9529 9358
3705 4512 2658
3706 2241 8546
3707 8685 5516
3708 380  3108
3709 7088 9124
3710 8315 9391
3711 8087 8489
3712 7668 5327
3713 8063 9150
3714 7303 9845
3715 6133 7066
3716 2081 8057
3717 1119 881 
3718 6887 9572
3719 8033 7887
3720 703  8259
3721 1418 7971
3722 4507 5404
3723 9148 6457
3724 1658 9079
3725 348  3383
3726 7880 9716
3727 358  8665
3728 7299 7945
3729 4145 2660
3730 7523 7928
3731 9082 9071
3732 8060 5194
3733 4712 2740
3734 83   8729
3735 4611 3024
3736 4507 3927
3737 7648 571 
3738 7983 8600
3739 8359 9216
3740 786  8090
3741 125  2287
3742 7705 5174
3743 845  4490
3744 4556 1699
3745 8461 6498
3746 1699 8298
3747 817  9918
3748 5735 2814
3749 8488 9648
3750 6022 8229
3751 30   2541
3752 8449 6132
3753 8293 9705
3754 4668 3583
3755 7575 7378
3756 4778 3435
3757 8619 3947
3758 85   3162
3759 7092 8258
3760 7537 8573
3761 7191 8264
3762 8616 8586
3763 7556 9819
3764 7207 5395
3765 7906 6210
3766 1618 8584
3767 8239 9805
3768 8312 9564
3769 8210 5858
3770 425  4995
3771 6872 3351
3772 977  5307
3773 4209 2737
3774 1359 589 
3775 1938 2864
3776 8320 9925
3777 8064 7690
3778 3447 1728
3779 7966 6398
3780 674  8615
3781 9693 9329
3782 7423 9483
3783 1028 9148
3784 7637 6517
3785 4399 2850
3786 1881 2367
3787 6446 6020
3788 8360 8651
3789 6736 7927
3790 8491 5554
3791 6379 3596
3792 691  7435
3793 2024 9508
3794 6104 5033
3795 8113 5345
3796 6528 2759
3797 4288 2764
3798 8072 9033
3799 7416 8579
3800 8034 5868
3801 123  3051
3802 3679 2164
3803 2498 3278
3804 1101 8208
3805 59   2224
3806 9065 4560
3807 7629 9406
3808 4865 3106
3809 8020 9976
3810 4319 3180
3811 4764 1263
3812 8691 4556
3813 158  8115
3814 6707 5450
3815 7063 8152
3816 4592 3142
3817 7265 4693
3818 9187 5228
3819 2434 1950
3820 4192 5260
3821 6148 7856
3822 8681 4746
3823 7794 3760
3824 6541 9823
3825 341  2650
3826 8289 5659
3827 7578 8049
3828 7272 9798
3829 5333 1234
3830 8093 5479
3831 4467 3226
3832 7542 8657
3833 3655 4468
3834 6642 8727
3835 7871 6088
3836 8323 5228
3837 7995 9784
3838 7311 5920
3839 7783 8999
3840 5956 5211
3841 4711 2537
3842 7447 7454
3843 8105 5505
3844 5520 7913
3845 8961 9508
3846 8567 7700
3847 4733 2178
3848 7545 8897
3849 6660 8003
3850 7280 6675
3851 8072 5285
3852 1461 1933
3853 7495 8098
3854 1731 6619
3855 5397 3022
3856 6709 9620
3857 7862 4855
3858 7413 7446
3859 814  9874
3860 1448 7283
3861 1703 2294
3862 507  3554
3863 5940 2459
3864 8053 4750
3865 791  2992
3866 4918 2637
3867 3053 8046
3868 7593 9205
3869 7286 8218
3870 3776 2354
3871 305  2817
3872 8162 5066
3873 269  2982
3874 5269 4874
3875 428  2750
3876 8225 6503
3877 7056 8281
3878 7421 7556
3879 6785 7481
3880 7655 9050
3881 4425 2497
3882 7472 5218
3883 244  9600
3884 8094 9073
3885 367  4553
3886 7320 4641
3887 6168 6921
3888 183  5791
3889 7833 4965
3890 7717 8359
3891 9050 4523
3892 6475 6676
3893 7192 5622
3894 4139 2354
3895 6289 6701
3896 696  2026
3897 4775 2708
3898 8368 5670
3899 1432 3462
3900 4287 3022
3901 6826 7603
3902 7430 7871
3903 7754 9365
3904 278  3367
3905 7791 7847
3906 5830 6637
3907 9504 6947
3908 6292 8078
3909 6685 8935
3910 3368 2647
3911 3065 2975
3912 717  8601
3913 1407 7854
3914 9230 7032
3915 8121 4812
3916 4030 2236
3917 5197 5054
3918 1818 8557
3919 384  9832
3920 3232 957 
3921 678  8602
3922 1186 3550
3923 553  8412
3924 1662 7173
3925 541  8995
3926 5266 4488
3927 504  8246
3928 8312 5139
3929 89   3864
3930 7813 4882
3931 7556 5901
3932 1034 8987
3933 8749 8553
3934 8383 9429
3935 2261 8583
3936 7074 7920
3937 4480 2944
3938 7464 7064
3939 9688 4914
3940 8440 6950
3941 4843 1129
3942 6114 7777
3943 8196 6288
3944 8549 8718
3945 7897 8813
3946 8741 9812
3947 448  3216
3948 671  3702
3949 4105 2182
3950 8387 5262
3951 6770 1194
3952 638  3226
3953 841  6684
3954 7573 6853
3955 7821 5270
3956 689  8796
3957 88   8549
3958 596  4000
3959 5064 3742
3960 7260 4987
3961 740  9045
3962 1154 9799
3963 8444 8786
3964 7069 7847
3965 7324 6320
3966 9338 9590
3967 6576 5207
3968 8707 7548
3969 6361 4368
3970 7640 8712
3971 7867 8751
3972 8077 4548
3973 4604 2332
3974 4486 2879
3975 5393 2847
3976 9973 2783
3977 765  9155
3978 4684 2704
3979 7502 9969
3980 9887 6984
3981 6978 8767
3982 8166 5603
3983 6263 3835
3984 363  8365
3985 7275 6727
3986 8083 6898
3987 701  8221
3988 4635 4270
3989 7393 6253
3990 592  5117
3991 2341 2157
3992 8516 9307
3993 2000 9751
3994 9449 4522
3995 3891 1497
3996 8338 8211
3997 617  5777
3998 8754 5577
3999 219  2789
4000 8146 9010
4001 1128 8828
4002 379  2371
4003 7699 8466
4004 8204 9364
4005 4529 2985
4006 1293 4525
4007 2928 2140
4008 265  3422
4009 257  8038
4010 3387 779 
4011 1510 3835
4012 1099 6927
4013 8377 9027
4014 1847 7303
4015 373  8463
4016 603  8408
4017 1138 7566
4018 4365 2533
4019 4955 2509
4020 271  3229
4021 642  7438
4022 537  1564
4023 3891 1941
4024 7369 5211
4025 590  2896
4026 5553 3037
4027 6839 9217
4028 7857 9082
4029 2202 7571
4030 935  7817
4031 1375 8134
4032 7270 5576
4033 8327 5569
4034 831  1700
4035 6443 4703
4036 5052 3062
4037 7847 5497
4038 1182 3877
4039 7482 9354
4040 5427 3102
4041 4333 289 
4042 267  3210
4043 8427 9860
4044 7501 4130
4045 7347 8668
4046 1853 8467
4047 1252 7721
4048 8083 7943
4049 7601 4971
4050 924  8149
4051 7828 4842
4052 707  8297
4053 7983 6599
4054 4334 3017
4055 644  9822
4056 4578 2439
4057 6780 5573
4058 8660 5687
4059 798  3476
4060 4422 2332
4061 4700 2421
4062 4434 2758
4063 7644 5088
4064 1329 7703
4065 4963 3101
4066 8382 8670
4067 8275 6089
4068 6093 9720
4069 981  9335
4070 318  3900
4071 5382 2594
4072 553  8894
4073 4498 1185
4074 725  9550
4075 7846 8903
4076 7856 4810
4077 5118 3669
4078 1105 9632
4079 6956 7801
4080 8183 8101
4081 7523 8153
4082 5860 8476
4083 8108 6087
4084 7594 5709
4085 7498 9011
4086 7717 7896
4087 5378 2730
4088 5553 6623
4089 628  8413
4090 6559 6135
4091 4590 2240
4092 367  6889
4093 4303 3081
4094 4678 2931
4095 763  4279
4096 8028 6290
4097 9251 6147
4098 7667 9309
4099 6078 1218
4100 8151 8413
4101 9337 4409
4102 1476 3245
4103 7222 7716
4104 7052 8261
4105 7215 7812
4106 7713 7434
4107 1973 4084
4108 6816 9088
4109 5043 2716
4110 8679 6330
4111 5542 2758
4112 7640 7537
4113 7135 8367
4114 5016 2596
4115 7381 9923
4116 563  2774
4117 9071 3537
4118 5242 2575
4119 1026 9618
4120 111  2955
4121 1330 7632
4122 8989 8642
4123 762  3821
4124 8705 7700
4125 6483 4617
4126 5689 6098
4127 259  4244
4128 966  9141
4129 6155 6711
4130 7300 9178
4131 3926 2056
4132 5227 3067
4133 142  3651
4134 8245 8025
4135 3584 1408
4136 8409 6047
4137 549  6123
4138 1271 9291
4139 8839 7928
4140 512  3783
4141 5150 3030
4142 5119 3286
4143 5076 3631
4144 4591 2682
4145 1812 1979
4146 9110 7833
4147 56   7730
4148 5667 7565
4149 8868 6820
4150 6767 8416
4151 6905 8987
4152 2944 2697
4153 7221 7404
4154 7654 7507
4155 176  6187
4156 836  9203
4157 7940 7409
4158 7710 4407
4159 4019 3631
4160 7558 9913
4161 6925 5724
4162 382  2799
4163 7641 4722
4164 7839 9075
4165 3566 3533
4166 8070 4670
4167 4551 2643
4168 8708 9836
4169 8175 9479
4170 7674 8170
4171 4002 1541
4172 6811 9244
4173 1436 8070
4174 7343 3084
4175 8282 9903
4176 6539 7556
4177 825  7454
4178 4720 3231
4179 644  8197
4180 6865 5533
4181 6204 7945
4182 6922 5804
4183 2396 3573
4184 637  8268
4185 1178 4645
4186 7763 7746
4187 5844 2342
4188 7655 9546
4189 9058 5612
4190 6742 7932
4191 8042 4416
4192 207  3347
4193 3216 1932
4194 7659 9310
4195 7441 8253
4196 726  2673
4197 8886 5486
4198 437  3742
4199 3121 2293
4200 7913 9245
4201 9360 9364
4202 7604 2437
4203 7823 8516
4204 8851 9751
4205 6590 8658
4206 9235 9034
4207 7429 8479
4208 8793 8248
4209 4397 3006
4210 7953 8388
4211 7938 9370
4212 9440 7989
4213 7365 7621
4214 187  3438
4215 7452 6960
4216 9278 2409
4217 7666 9253
4218 4633 1337
4219 4740 507 
4220 198  2686
4221 7308 3903
4222 8412 9454
4223 8173 6291
4224 7730 9387
4225 9058 9316
4226 5585 1583
4227 7395 7768
4228 7685 8112
4229 8680 9228
4230 222  3639
4231 931  4168
4232 6006 9799
4233 6429 7748
4234 4581 3165
4235 1036 3048
4236 8859 9847
4237 8019 7292
4238 7390 5248
4239 8258 9436
4240 4062 3560
4241 523  3971
4242 9050 6825
4243 917  3807
4244 3686 2491
4245 7317 4487
4246 371  4478
4247 7726 5661
4248 8075 5098
4249 395  2946
4250 8431 4864
4251 7761 8162
4252 8542 4523
4253 4509 2711
4254 4528 3604
4255 5422 5538
4256 7342 7202
4257 8266 4137
4258 999  9634
4259 8307 4799
4260 562  3180
4261 8725 4803
4262 8249 5370
4263 8162 4653
4264 4338 3334
4265 358  8215
4266 8244 9513
4267 1106 1448
4268 7526 6097
4269 1314 7962
4270 8096 8672
4271 8667 4532
4272 1493 8751
4273 7169 8688
4274 5064 2111
4275 1328 8598
4276 6956 7858
4277 996  8812
4278 7555 6547
4279 7521 6313
4280 131  8176
4281 5806 3497
4282 7219 5525
4283 2185 2298
4284 1676 8335
4285 4246 2810
4286 9038 4423
4287 5998 7896
4288 9719 5128
4289 4188 2422
4290 8    2824
4291 8810 6231
4292 8735 6164
4293 5495 2726
4294 7414 7466
4295 3357 4720
4296 1906 6796
4297 6349 4173
4298 4202 3697
4299 369  8554
4300 111  4491
4301 6644 3626
4302 5570 1878
4303 7029 5232
4304 8735 5346
4305 8347 7113
4306 9212 5081
4307 8809 6182
4308 809  2375
4309 7341 7830
4310 4191 2844
4311 645  8138
4312 8695 8671
4313 9010 8611
4314 4007 2799
4315 5623 7403
4316 7971 5938
4317 2064 1653
4318 830  2317
4319 8151 4313
4320 1885 7580
4321 1121 4707
4322 7791 9130
4323 73   8631
4324 538  3432
4325 9069 5703
4326 4927 4802
4327 7668 6705
4328 7488 6962
4329 447  3857
4330 2274 8183
4331 7583 9073
4332 435  8364
4333 4269 1246
4334 8596 9170
4335 9192 6789
4336 3651 3310
4337 8021 9107
4338 8549 9118
4339 7199 8267
4340 4374 2243
4341 7725 6560
4342 8012 9466
4343 7683 5387
4344 236  3155
4345 126  2794
4346 8553 9586
4347 992  8733
4348 8596 9008
4349 998  8179
4350 4179 667 
4351 948  8171
4352 3434 2156
4353 9345 8146
4354 8869 5556
4355 7560 9651
4356 1476 8408
4357 949  9682
4358 4387 3086
4359 8532 9819
4360 6870 8131
4361 6959 7798
4362 1627 8469
4363 6889 5122
4364 103  8295
4365 887  2199
4366 2792 2227
4367 3546 2372
4368 9520 8345
4369 6665 8037
4370 8309 9254
4371 6753 8001
4372 893  3451
4373 7131 7479
4374 173  3074
4375 246  7020
4376 7638 6127
4377 7080 8810
4378 407  2261
4379 5179 2242
4380 471  3282
4381 1755 7549
4382 8088 5278
4383 5479 3619
4384 8274 9891
4385 4204 2873
4386 4017 2239
4387 6862 1403
4388 8896 9168
4389 8299 8537
4390 3381 3629
4391 7161 5694
4392 7214 7728
4393 529  8587
4394 7513 9043
4395 420  8204
4396 6702 6563
4397 7817 7507
4398 6766 7325
4399 697  8990
4400 7816 9549
4401 8189 4296
4402 7098 8672
4403 7556 6092
4404 8244 7494
4405 455  3542
4406 552  2523
4407 8701 3973
4408 3868 2098
4409 8344 4359
4410 6590 8565
4411 7015 8155
4412 520  8735
4413 781  8722
4414 699  7678
4415 7455 9790
4416 6427 8994
4417 414  8953
4418 7633 8776
4419 6935 8912
4420 267  3422
4421 7057 7325
4422 7222 8890
4423 172  4422
4424 8480 6918
4425 7238 7476
4426 153  9760
4427 706  3473
4428 7155 5490
4429 6845 8158
4430 7235 9812
4431 7881 9130
4432 7817 5309
4433 8577 9085
4434 8030 4909
4435 567  8575
4436 5208 5232
4437 4762 2495
4438 7895 9678
4439 9430 5863
4440 7941 7829
4441 5691 7006
4442 8638 5412
4443 254  8889
4444 7434 7906
4445 8373 5402
4446 3186 3257
4447 7636 3619
4448 2437 2439
4449 205  3291
4450 1420 9131
4451 8774 8817
4452 684  4407
4453 3650 1691
4454 1213 8848
4455 7875 9644
4456 8597 9152
4457 8049 9697
4458 680  2578
4459 7369 5074
4460 1094 8346
4461 3812 3806
4462 8867 8741
4463 1079 9092
4464 308  8473
4465 8455 6150
4466 7700 5089
4467 6130 6161
4468 7727 5981
4469 524  3422
4470 4461 2941
4471 5522 5436
4472 1031 8476
4473 6517 8113
4474 6869 7372
4475 8443 4873
4476 8007 5000
4477 3771 3595
4478 3546 2285
4479 7482 5432
4480 8194 4870
4481 8606 9647
4482 8254 5655
4483 4472 2073
4484 7716 5850
4485 8579 7817
4486 7325 8663
4487 5185 4071
4488 8353 9738
4489 7731 3543
4490 8464 8621
4491 4113 2948
4492 3623 2153
4493 1643 8490
4494 7157 6874
4495 703  7911
4496 8115 9350
4497 5129 1844
4498 7979 5150
4499 8359 9568
4500 445  3690
4501 777  4105
4502 155  3980
4503 6417 9785
4504 1775 8526
4505 425  4327
4506 8721 7913
4507 341  2839
4508 5421 2746
4509 8735 8655
4510 6728 5759
4511 7873 5733
4512 7090 8733
4513 7792 7252
4514 8699 5448
4515 7084 7805
4516 1237 9106
4517 7008 6678
4518 7915 8999
4519 9057 7491
4520 8608 8693
4521 8421 5259
4522 8378 8931
4523 7339 8419
4524 8061 4045
4525 8848 9753
4526 6901 4785
4527 4406 4127
4528 8759 4836
4529 9456 5675
4530 2394 1213
4531 226  2986
4532 670  9232
4533 6055 7039
4534 5220 21  
4535 610  9255
4536 6326 3956
4537 1684 7289
4538 835  7628
4539 1349 8806
4540 3421 1876
4541 7076 7460
4542 1244 8694
4543 8083 8559
4544 4439 2624
4545 1463 7151
4546 6757 7648
4547 1849 7215
4548 6056 8455
4549 291  3911
4550 59   6972
4551 6467 6479
4552 6698 4485
4553 7222 8386
4554 6572 9067
4555 7427 8337
4556 200  2842
4557 7540 5270
4558 7319 4671
4559 1037 2245
4560 9910 6064
4561 8731 9482
4562 7679 4813
4563 7196 7887
4564 7479 5313
4565 4942 8195
4566 6632 7739
4567 234  7580
4568 6408 7321
4569 7218 7862
4570 8224 5269
4571 5177 7896
4572 4561 3030
4573 94   2099
4574 9214 9083
4575 7793 7164
4576 8121 4933
4577 4400 2467
4578 7662 5234
4579 632  1920
4580 3606 2530
4581 699  9839
4582 774  8213
4583 4948 2411
4584 8637 7638
4585 5087 3736
4586 5735 8703
4587 8609 8573
4588 1095 6056
4589 6676 4055
4590 4447 2514
4591 8808 9431
4592 9616 3587
4593 8941 8591
4594 150  3216
4595 7821 5723
4596 7815 5474
4597 7935 9921
4598 8562 5895
4599 882  7120
4600 7388 8431
4601 880  8022
4602 542  7961
4603 6329 8086
4604 8945 8617
4605 221  3487
4606 7945 9353
4607 7857 8321
4608 6664 8010
4609 8306 4755
4610 8143 4840
4611 7862 7585
4612 8919 7378
4613 19   3870
4614 7495 8422
4615 4424 3376
4616 9234 5556
4617 7304 8546
4618 4724 930 
4619 6133 3304
4620 7466 9076
4621 1494 2206
4622 7873 5464
4623 7039 8553
4624 8253 9513
4625 8203 6850
4626 5264 3112
4627 7985 8673
4628 8089 5196
4629 7560 7722
4630 8099 6918
4631 7542 6273
4632 3706 3122
4633 1301 9589
4634 6856 7863
4635 561  3516
4636 5426 79  
4637 310  9388
4638 4681 2472
4639 5342 2967
4640 6377 3004
4641 5549 2151
4642 4656 2202
4643 6649 7688
4644 995  4004
4645 7909 8734
4646 873  9441
4647 3845 4012
4648 4752 2588
4649 7779 6446
4650 4796 2277
4651 3804 3620
4652 398  1450
4653 8079 8152
4654 1201 9596
4655 9507 7907
4656 7563 7112
4657 3477 5633
4658 1013 8374
4659 546  8193
4660 4729 1799
4661 6868 9642
4662 7882 8097
4663 5026 2361
4664 375  7756
4665 7713 5244
4666 4597 1212
4667 8297 4790
4668 7133 8277
4669 8054 9349
4670 430  3073
4671 9556 7820
4672 1998 8466
4673 354  4222
4674 4360 2665
4675 2361 2541
4676 1110 9042
4677 7671 8257
4678 6818 8036
4679 2896 8364
4680 7527 5268
4681 7984 9584
4682 6880 9056
4683 1386 7281
4684 8494 9907
4685 8355 5578
4686 6238 3082
4687 7637 7973
4688 623  3635
4689 5784 9547
4690 1229 3839
4691 1459 3157
4692 6200 4329
4693 8449 7298
4694 581  2751
4695 8005 5130
4696 6788 3910
4697 7496 7970
4698 7518 8430
4699 5463 1834
4700 8315 9348
4701 2764 8138
4702 422  4044
4703 8206 5282
4704 6405 7746
4705 4967 3304
4706 4290 2490
4707 956  7807
4708 7280 8254
4709 7556 8795
4710 148  3488
4711 6188 7141
4712 3802 2533
4713 7745 5568
4714 7349 8173
4715 8644 6493
4716 7622 6611
4717 6722 7728
4718 6936 8583
4719 8051 5872
4720 7333 5905
4721 7565 9060
4722 1357 2386
4723 8640 4023
4724 1361 7972
4725 7453 7464
4726 7558 9862
4727 3743 2610
4728 6374 2912
4729 7818 7865
4730 5270 3209
4731 1157 9173
4732 8468 6267
4733 7541 4949
4734 355  4160
4735 7898 8003
4736 8277 9380
4737 8742 5113
4738 5244 2580
4739 4279 2956
4740 142  8041
4741 5026 2171
4742 4512 2557
4743 791  9113
4744 4158 2843
4745 7460 7940
4746 5098 2585
4747 3623 2116
4748 4141 2108
4749 466  8061
4750 7821 8904
4751 126  9351
4752 785  8369
4753 7723 8051
4754 9747 4661
4755 7955 9086
4756 1265 7816
4757 5064 2584
4758 126  3433
4759 265  8227
4760 3278 3346
4761 249  2861
4762 9251 9169
4763 8111 8432
4764 8638 3163
4765 8073 4942
4766 5097 2017
4767 8581 5104
4768 8836 5677
4769 8252 4916
4770 35   9139
4771 4148 2884
4772 8170 5014
4773 8007 8157
4774 8091 8477
4775 8059 8471
4776 7638 1627
4777 7988 5054
4778 8021 7401
4779 3357 2188
4780 7078 642 
4781 1662 7824
4782 286  3550
4783 7288 5665
4784 5997 7081
4785 6425 1686
4786 8383 4971
4787 4111 1558
4788 1194 3179
4789 6941 6130
4790 8443 8204
4791 8711 5778
4792 1085 9698
4793 7763 3756
4794 144  2861
4795 4584 1995
4796 8352 6131
4797 1085 3956
4798 7047 8633
4799 3649 389 
4800 958  3877
4801 4714 3197
4802 1481 3872
4803 6940 7479
4804 7671 4541
4805 3803 8774
4806 783  3115
4807 783  9038
4808 8828 6105
4809 4147 3486
4810 678  2995
4811 1849 7517
4812 2303 8787
4813 7625 7459
4814 897  7665
4815 8588 7507
4816 7841 5682
4817 8414 9066
4818 8821 8874
4819 4422 2127
4820 1233 8531
4821 6718 7790
4822 1368 8816
4823 6035 4676
4824 8569 9094
4825 190  2635
4826 655  8508
4827 7582 9777
4828 81   2924
4829 8267 8917
4830 477  6714
4831 2385 6574
4832 923  8982
4833 9036 9659
4834 191  4691
4835 8075 5855
4836 4190 3376
4837 6076 1574
4838 8621 7328
4839 7793 5169
4840 436  4077
4841 7695 6683
4842 8624 4748
4843 5791 2269
4844 7925 4341
4845 7103 8297
4846 8932 3793
4847 4544 2693
4848 4854 3645
4849 7338 7226
4850 7435 9112
4851 7437 9418
4852 5583 2543
4853 7429 5309
4854 248  4596
4855 7820 4310
4856 7246 7890
4857 291  5153
4858 713  2723
4859 121  2439
4860 6010 8068
4861 9618 5001
4862 7496 5522
4863 6563 8560
4864 2357 3192
4865 6723 9144
4866 7927 5470
4867 7586 8083
4868 7644 6024
4869 2474 4591
4870 2628 4236
4871 8180 6406
4872 6867 5376
4873 1070 8290
4874 3542 4791
4875 7929 5791
4876 8432 8616
4877 1493 3153
4878 7677 8196
4879 306  7531
4880 7388 8665
4881 6157 2540
4882 7709 8519
4883 743  783 
4884 7315 5863
4885 613  3123
4886 7262 8363
4887 244  2986
4888 1727 2669
4889 7504 7955
4890 1256 7269
4891 7568 8524
4892 9275 8573
4893 6909 8924
4894 8157 4874
4895 7740 5398
4896 1469 7883
4897 1139 1816
4898 8951 5780
4899 7021 9107
4900 8442 4877
4901 8534 5633
4902 7045 8989
4903 3646 1933
4904 1827 2745
4905 369  3581
4906 8018 8686
4907 4214 2159
4908 8333 5135
4909 225  8484
4910 7841 8325
4911 180  2919
4912 15   1522
4913 7448 8799
4914 3465 4270
4915 8717 5370
4916 8817 9695
4917 2949 3033
4918 736  2854
4919 849  8026
4920 7664 7981
4921 575  3612
4922 4325 3589
4923 7212 6682
4924 32   9425
4925 7338 9664
4926 8697 8733
4927 3683 2796
4928 7226 8225
4929 5706 2448
4930 487  2942
4931 483  3366
4932 8080 5529
4933 3618 2340
4934 7196 6790
4935 8123 5946
4936 7949 9474
4937 5181 2483
4938 7846 8508
4939 7986 5659
4940 8257 7055
4941 7949 8017
4942 2654 2079
4943 748  3504
4944 7779 4637
4945 65   3851
4946 8388 5574
4947 5    7184
4948 5314 2290
4949 8013 4728
4950 7487 9299
4951 3991 2839
4952 744  4095
4953 8251 5395
4954 7486 8243
4955 4553 1944
4956 4549 2851
4957 8899 7831
4958 4260 3021
4959 568  8632
4960 7923 9687
4961 4074 3165
4962 8650 6057
4963 569  3831
4964 8201 9421
4965 4494 2474
4966 1394 9699
4967 243  3376
4968 8759 6365
4969 943  7520
4970 7769 8384
4971 5651 5657
4972 1945 3067
4973 8992 9323
4974 7456 8511
4975 7971 9328
4976 4365 3476
4977 8944 7405
4978 7940 8193
4979 7122 4692
4980 6859 6596
4981 7858 9954
4982 6673 5959
4983 7892 5282
4984 7839 9289
4985 4340 2200
4986 8245 8712
4987 6585 7662
4988 7424 4580
4989 8235 7689
4990 2220 7193
4991 798  3453
4992 1408 9068
4993 6434 5303
4994 7954 9501
4995 4113 3190
4996 7746 8911
4997 5507 8923
4998 214  3075
4999 7863 9950
5000 300  3233
5001 3220 5078
5002 3808 3599
5003 6229 6902
5004 35   6880
5005 4379 2387
5006 1060 6523
5007 8035 5853
5008 4305 3151
5009 8048 3664
5010 1433 4945
5011 1199 5154
5012 8298 8362
5013 7523 7187
5014 361  9125
5015 8857 5961
5016 7085 7083
5017 8853 8825
5018 4595 4659
5019 5444 4805
5020 6391 8642
5021 3747 1695
5022 8050 5387
5023 4392 1262
5024 4022 2998
5025 488  7660
5026 3841 9038
5027 8522 5465
5028 7722 4665
5029 579  3324
5030 222  3940
5031 4945 4667
5032 9170 9982
5033 1259 7398
5034 6771 6546
5035 8467 4137
5036 8930 7485
5037 4038 3647
5038 6736 9794
5039 972  3512
5040 6134 8078
5041 8188 7720
5042 8676 6874
5043 7269 6144
5044 630  8692
5045 8294 8068
5046 9262 8924
5047 7963 9620
5048 8521 4833
5049 8877 5124
5050 7971 9121
5051 7144 8810
5052 5184 2674
5053 4508 2792
5054 267  4097
5055 7729 8951
5056 7693 9620
5057 5016 3243
5058 9545 4006
5059 7897 5776
5060 127  3364
5061 8443 8400
5062 426  3284
5063 7507 7969
5064 6884 8416
5065 3881 2912
5066 7110 9574
5067 163  8896
5068 8347 5679
5069 3585 1124
5070 8615 8921
5071 5448 2011
5072 558  7978
5073 5715 8732
5074 1145 3687
5075 8974 5402
5076 3085 2098
5077 1145 4264
5078 7991 8722
5079 8094 5537
5080 7120 8095
5081 7339 9253
5082 2021 2315
5083 6916 7666
5084 6251 8182
5085 5850 7752
5086 7955 5558
5087 4434 2450
5088 8099 5594
5089 7463 5416
5090 190  2732
5091 7924 6732
5092 7028 4214
5093 5464 2118
5094 65   7117
5095 7845 5959
5096 7189 5416
5097 5791 1314
5098 535  8486
5099 110  4113
5100 8519 5184
5101 5092 2281
5102 244  4063
5103 6285 8442
5104 7664 8317
5105 421  8915
5106 594  8519
5107 3923 3225
5108 1164 2773
5109 8785 8904
5110 1859 6454
5111 8371 8219
5112 918  3396
5113 1995 8953
5114 3751 1672
5115 1943 1458
5116 3874 1949
5117 6408 6296
5118 129  8534
5119 561  5929
5120 7849 9422
5121 8872 3052
5122 2246 1994
5123 178  3482
5124 3360 2442
5125 9044 4870
5126 3257 1738
5127 8159 4870
5128 7827 8348
5129 1190 8861
5130 7315 8304
5131 1933 3310
5132 8383 4869
5133 8080 7618
5134 3965 2518
5135 6086 5847
5136 513  9340
5137 7636 4625
5138 8692 5851
5139 8616 3087
5140 8524 8309
5141 4178 2583
5142 7091 4649
5143 7522 4959
5144 8092 5463
5145 4299 2921
5146 2125 7866
5147 706  3358
5148 5394 2468
5149 2720 2918
5150 2977 8636
5151 7668 8072
5152 4781 3678
5153 283  3676
5154 1270 3309
5155 7447 9020
5156 9093 6126
5157 416  8529
5158 9475 7881
5159 436  9990
5160 8661 5259
5161 7303 8477
5162 6400 7485
5163 3705 2377
5164 7133 7973
5165 276  3221
5166 475  8751
5167 3798 2938
5168 4527 6785
5169 5619 8869
5170 7681 9244
5171 212  2739
5172 7423 7796
5173 8711 8290
5174 6117 9833
5175 7715 9785
5176 1656 8592
5177 9831 9560
5178 808  8800
5179 4920 2874
5180 7104 8012
5181 6916 9402
5182 6809 8206
5183 852  3058
5184 8435 5962
5185 695  8295
5186 7843 4664
5187 293  3972
5188 307  3504
5189 8363 6466
5190 7390 7912
5191 353  3378
5192 9231 5020
5193 7961 9147
5194 7597 7165
5195 232  7922
5196 7479 4710
5197 8075 9078
5198 2353 3683
5199 8842 4475
5200 187  3592
5201 8539 9336
5202 4841 2428
5203 8070 9534
5204 6676 9216
5205 4659 2575
5206 218  3106
5207 1351 3729
5208 802  8495
5209 155  3647
5210 7482 9862
5211 7722 8963
5212 699  8592
5213 7219 7372
5214 5818 3044
5215 1743 3433
5216 8245 5959
5217 5928 7055
5218 7261 7750
5219 772  8649
5220 327  2831
5221 8471 5808
5222 854  9071
5223 7099 3303
5224 777  8920
5225 2141 242 
5226 5557 2779
5227 972  8583
5228 8013 9540
5229 9175 7510
5230 7773 5568
5231 6662 8414
5232 3883 1888
5233 6929 5538
5234 7698 9264
5235 8161 5107
5236 3494 4431
5237 6003 9195
5238 6013 1875
5239 7867 6165
5240 87   8395
5241 1638 7649
5242 7494 8636
5243 707  1693
5244 8473 9231
5245 6179 7313
5246 1385 4998
5247 8911 5967
5248 3308 3299
5249 5693 4038
5250 3392 4527
5251 3727 2329
5252 5014 2107
5253 8239 9699
5254 4498 2343
5255 6518 6920
5256 625  3629
5257 7307 7663
5258 745  8723
5259 161  3371
5260 7412 7259
5261 38   3723
5262 1530 1815
5263 6347 6138
5264 5809 3139
5265 8099 9948
5266 232  3432
5267 7931 7965
5268 1059 8559
5269 7711 8779
5270 86   3106
5271 4061 2034
5272 3547 1652
5273 281  3231
5274 1674 9008
5275 8512 5266
5276 7189 9149
5277 5267 1496
5278 4116 678 
5279 67   3271
5280 5837 5759
5281 6190 7255
5282 2442 5538
5283 899  2252
5284 7883 9314
5285 7210 8141
5286 8124 8930
5287 7634 9000
5288 7870 7928
5289 1506 6832
5290 7615 4774
5291 494  8389
5292 3729 3271
5293 1392 3383
5294 7189 7454
5295 210  3047
5296 4422 2676
5297 7945 6032
5298 8149 6091
5299 7446 9728
5300 6430 4230
5301 15   2491
5302 1310 5562
5303 6516 7266
5304 7620 7794
5305 1633 2405
5306 4693 4137
5307 819  3577
5308 8166 9474
5309 9594 6553
5310 7785 4703
5311 7501 5438
5312 7248 5204
5313 7852 9783
5314 3639 1939
5315 4259 2999
5316 959  3909
5317 8780 8140
5318 6820 9037
5319 5137 1442
5320 6102 5096
5321 6427 3582
5322 9660 5467
5323 8501 6054
5324 7860 8677
5325 6848 5633
5326 609  8472
5327 281  5931
5328 247  3753
5329 7551 9943
5330 7761 8889
5331 8431 4003
5332 4969 2953
5333 7622 6234
5334 4448 2459
5335 254  8148
5336 8232 9066
5337 224  2027
5338 7510 8555
5339 87   8653
5340 7640 9685
5341 340  9476
5342 156  4600
5343 2081 8086
5344 7626 4714
5345 7240 9898
5346 4327 2707
5347 9574 9528
5348 6312 1104
5349 5960 2629
5350 775  6583
5351 7185 8772
5352 7637 8883
5353 8231 5236
5354 256  3316
5355 4695 3100
5356 7696 7240
5357 3934 4208
5358 8032 8868
5359 8629 8454
5360 2642 2110
5361 8171 9965
5362 7744 4694
5363 8003 9359
5364 2173 8625
5365 3311 2456
5366 7813 8165
5367 6669 9123
5368 5379 3479
5369 8153 7769
5370 1485 3771
5371 9037 6814
5372 5322 2947
5373 9115 5283
5374 4305 1604
5375 7831 8946
5376 1215 8700
5377 7736 4958
5378 6984 3779
5379 6359 9138
5380 4373 3675
5381 8575 4932
5382 3353 3058
5383 195  3936
5384 539  3059
5385 9300 9286
5386 818  8213
5387 6917 4414
5388 7464 8280
5389 4302 3129
5390 7450 5833
5391 8480 8582
5392 2197 1040
5393 511  8601
5394 7509 7665
5395 7254 7484
5396 3730 1950
5397 7084 8968
5398 6047 2652
5399 6852 8572
5400 4032 1178
5401 204  8428
5402 9607 7571
5403 3963 2403
5404 9083 6144
5405 8362 9096
5406 320  8512
5407 4212 4044
5408 7927 5558
5409 146  8388
5410 242  8967
5411 4274 1331
5412 7631 5326
5413 7371 8012
5414 457  8506
5415 6963 9416
5416 6734 8325
5417 436  7723
5418 436  2963
5419 4259 3567
5420 4866 3229
5421 7697 5865
5422 6220 8217
5423 432  8534
5424 2099 3724
5425 8120 7639
5426 7554 9250
5427 380  7835
5428 7916 6710
5429 4339 3903
5430 1219 3575
5431 9081 5112
5432 5421 7503
5433 2739 2897
5434 6004 8925
5435 2696 7440
5436 8030 8583
5437 203  3728
5438 8978 5389
5439 9890 9917
5440 333  9154
5441 887  8255
5442 7942 5501
5443 779  8606
5444 8251 4306
5445 7109 9588
5446 7240 5404
5447 7690 7549
5448 8763 6723
5449 5478 1957
5450 5717 2291
5451 7465 5850
5452 1244 9107
5453 7863 6181
5454 7580 9500
5455 2693 4487
5456 3816 2218
5457 5916 8246
5458 1387 4852
5459 8013 9896
5460 7499 8238
5461 8471 5242
5462 753  2704
5463 5789 2600
5464 334  1906
5465 6578 5383
5466 8573 4246
5467 7424 5163
5468 607  7511
5469 943  3012
5470 5378 3288
5471 7663 8591
5472 7665 7946
5473 7388 7639
5474 9033 8995
5475 7099 4691
5476 147  3938
5477 2845 2039
5478 545  8298
5479 8178 5576
5480 4051 1921
5481 548  9035
5482 1916 1425
5483 802  5170
5484 8035 7114
5485 5451 4157
5486 8228 7792
5487 1253 2196
5488 5504 2768
5489 4520 5638
5490 6525 4390
5491 2328 3163
5492 4214 3151
5493 8355 5608
5494 9829 8032
5495 4401 2743
5496 7825 4845
5497 9038 9160
5498 9130 9577
5499 8585 9754
5500 1280 8751
5501 222  4917
5502 4049 711 
5503 8284 8636
5504 6566 6047
5505 7717 7608
5506 4803 2472
5507 164  3415
5508 7684 5014
5509 814  9934
5510 7624 9083
5511 7924 6351
5512 2817 2124
5513 4670 3587
5514 341  482 
5515 7845 9560
5516 7170 8618
5517 5198 5946
5518 4390 4439
5519 7967 7705
5520 4752 2059
5521 7194 8535
5522 7177 8501
5523 8163 9056
5524 8055 8886
5525 8599 8264
5526 686  9080
5527 7198 8605
5528 955  6604
5529 6457 5263
5530 8535 6331
5531 977  9201
5532 8025 9692
5533 5529 6953
5534 7910 5202
5535 291  8599
5536 3780 3248
5537 7763 5536
5538 392  3889
5539 7703 9030
5540 633  3592
5541 7484 9970
5542 5567 2632
5543 1587 7526
5544 7203 8266
5545 9162 9295
5546 7535 8843
5547 4486 2617
5548 6379 3201
5549 5912 9944
5550 7981 9565
5551 6698 8980
5552 8683 4856
5553 8673 7306
5554 465  8378
5555 502  3722
5556 4992 3777
5557 3859 2450
5558 6954 5349
5559 9413 6341
5560 171  8680
5561 315  7858
5562 7582 8253
5563 5338 3082
5564 6480 6899
5565 5099 1778
5566 8528 8077
5567 5584 1618
5568 3216 1843
5569 8399 8814
5570 7331 9826
5571 8276 5688
5572 7681 5636
5573 4465 2111
5574 7736 9623
5575 8212 9124
5576 3543 2904
5577 6766 599 
5578 1570 9703
5579 7169 9719
5580 2892 346 
5581 7531 5117
5582 5138 3079
5583 939  8474
5584 7732 7484
5585 5688 4173
5586 447  9559
5587 5457 9804
5588 7570 9121
5589 7986 8431
5590 8432 9819
5591 4074 3540
5592 4267 3097
5593 4654 2647
5594 5709 5375
5595 8174 9853
5596 7970 5702
5597 276  3446
5598 8021 5408
5599 846  8307
5600 9565 6057
5601 8363 9090
5602 6129 6996
5603 5119 1297
5604 9270 8339
5605 8172 9790
5606 7270 5499
5607 8232 8785
5608 7966 8486
5609 8661 7649
5610 8485 9228
5611 4963 5694
5612 9206 8036
5613 5443 2045
5614 8065 8320
5615 3985 2609
5616 726  7956
5617 7731 8105
5618 5183 3795
5619 3052 2726
5620 3862 4869
5621 6866 5882
5622 4060 2050
5623 7842 4781
5624 1717 8656
5625 482  9806
5626 5558 4224
5627 913  8818
5628 1621 9114
5629 7657 7854
5630 701  8605
5631 975  8660
5632 747  8541
5633 8335 9159
5634 4476 2843
5635 1488 8687
5636 4741 4278
5637 6243 7463
5638 7489 7133
5639 8055 9324
5640 1557 4171
5641 7571 4776
5642 518  7972
5643 8824 5960
5644 2116 8123
5645 8254 9084
5646 4463 2285
5647 7363 9206
5648 8112 4990
5649 859  9202
5650 8036 5746
5651 461  4559
5652 7587 9470
5653 6988 7883
5654 3493 3580
5655 3810 2564
5656 8775 7113
5657 5542 2564
5658 8425 7405
5659 5987 7606
5660 4869 2214
5661 4355 2592
5662 6020 1027
5663 6585 6516
5664 7890 9247
5665 5071 3429
5666 6050 1522
5667 3968 3604
5668 7088 6024
5669 7947 7971
5670 5091 2248
5671 7876 9325
5672 510  8356
5673 719  3411
5674 3916 53  
5675 8690 7607
5676 6447 5133
5677 452  8293
5678 7934 5801
5679 5024 2598
5680 451  3526
5681 4962 3618
5682 7874 5391
5683 9205 5809
5684 8047 8718
5685 483  5092
5686 5642 5186
5687 7564 5300
5688 4946 5091
5689 7415 8426
5690 5446 1955
5691 8272 9493
5692 919  8367
5693 8916 8072
5694 6638 8195
5695 6726 5009
5696 6606 8925
5697 8159 9702
5698 6982 8242
5699 7260 5373
5700 6314 6576
5701 2092 7877
5702 7071 8568
5703 301  8630
5704 7914 9224
5705 601  8528
5706 7556 4956
5707 5291 2148
5708 4317 2621
5709 4999 8570
5710 7879 6017
5711 6352 6089
5712 7598 9356
5713 4393 2718
5714 8362 5056
5715 8117 7341
5716 7376 8332
5717 5691 3232
5718 6271 6184
5719 7468 7502
5720 7516 5899
5721 1386 3469
5722 2387 4730
5723 6918 7124
5724 7972 4855
5725 2313 1803
5726 3551 2562
5727 50   2866
5728 1179 5381
5729 8561 7309
5730 7181 8468
5731 4483 2874
5732 8020 8693
5733 7021 5977
5734 1718 7835
5735 5223 2189
5736 1563 2067
5737 7906 7649
5738 8378 7996
5739 8324 5434
5740 8046 5582
5741 4690 2484
5742 8155 6414
5743 1085 9811
5744 7897 6342
5745 1419 8195
5746 732  3747
5747 362  3577
5748 6947 8785
5749 4428 2287
5750 7519 7453
5751 1336 3101
5752 4794 2945
5753 3179 3523
5754 9385 4797
5755 8883 8557
5756 8992 3593
5757 1160 7526
5758 311  3774
5759 6967 8382
5760 7295 5318
5761 8128 9498
5762 6480 8830
5763 8232 7381
5764 6902 3824
5765 7781 9595
5766 7711 9600
5767 4139 2707
5768 3923 8639
5769 8264 5430
5770 6544 9896
5771 6814 8942
5772 2083 5162
5773 7402 9175
5774 1585 6736
5775 538  4025
5776 516  3581
5777 7986 7853
5778 8365 9186
5779 873  2934
5780 6765 7365
5781 718  9083
5782 8911 8221
5783 7266 9059
5784 8300 5828
5785 7668 8883
5786 1419 9524
5787 7707 5087
5788 1394 8119
5789 475  3355
5790 9359 5181
5791 2023 2565
5792 7586 5336
5793 8288 7809
5794 9200 8228
5795 8062 7860
5796 202  4051
5797 8788 5993
5798 8190 9797
5799 4868 2229
5800 7188 8559
5801 964  6943
5802 23   2968
5803 7470 1648
5804 7313 8832
5805 7329 7556
5806 8388 5911
5807 7474 3314
5808 8968 5190
5809 4802 1191
5810 418  3145
5811 7879 8493
5812 365  7749
5813 7785 5193
5814 1257 2443
5815 7003 8196
5816 493  8583
5817 4069 2344
5818 7022 5276
5819 4138 1214
5820 4905 2555
5821 3884 2675
5822 8395 4765
5823 7872 8070
5824 8728 7736
5825 254  8485
5826 7408 8308
5827 413  7652
5828 4713 2739
5829 351  8479
5830 1290 9993
5831 4402 970 
5832 7408 4966
5833 6418 7744
5834 1250 8050
5835 8612 9423
5836 5285 3090
5837 6983 7665
5838 8250 8138
5839 6817 9533
5840 7477 6350
5841 9147 8599
5842 1291 7998
5843 846  7347
5844 1231 7679
5845 1003 9398
5846 436  8541
5847 1595 4967
5848 1322 9880
5849 8264 5458
5850 7545 7732
5851 581  2942
5852 7738 9167
5853 6754 9394
5854 6620 9616
5855 6736 8675
5856 7821 8474
5857 2742 3123
5858 5507 2879
5859 701  3598
5860 4001 2974
5861 7227 5507
5862 320  2875
5863 4494 2545
5864 1853 8893
5865 4608 1558
5866 5798 5874
5867 4815 2317
5868 719  7032
5869 7156 8505
5870 4634 3610
5871 7811 9367
5872 810  2444
5873 4606 3570
5874 7367 7497
5875 742  4915
5876 803  7269
5877 9752 7411
5878 8344 9629
5879 4699 1397
5880 344  3441
5881 7759 5236
5882 7335 4280
5883 7209 8060
5884 4919 3092
5885 7396 4538
5886 6556 9249
5887 895  5556
5888 1347 8378
5889 725  9944
5890 1311 3462
5891 6290 2169
5892 3788 3040
5893 3691 2274
5894 7015 4248
5895 8979 5464
5896 6054 7956
5897 4374 2569
5898 2313 6992
5899 7935 9655
5900 118  8436
5901 562  8704
5902 8713 6861
5903 7914 9064
5904 446  3296
5905 1373 7903
5906 1380 8464
5907 1521 4280
5908 6992 8954
5909 4592 3503
5910 6514 9586
5911 4029 3512
5912 8504 8086
5913 706  4484
5914 7372 5531
5915 4462 2744
5916 3935 3354
5917 130  8662
5918 7991 6933
5919 7365 4949
5920 383  2393
5921 7991 9881
5922 7800 5353
5923 8201 5019
5924 7682 7836
5925 4825 3409
5926 1253 8651
5927 627  8595
5928 3967 1838
5929 6548 1088
5930 8099 7805
5931 4162 3630
5932 5581 8768
5933 6810 9017
5934 857  8459
5935 7943 4757
5936 1827 5194
5937 6087 1197
5938 1873 5332
5939 8176 3606
5940 8063 9443
5941 5527 2662
5942 5659 2787
5943 7571 8587
5944 6487 8690
5945 2755 1890
5946 715  4132
5947 7345 9318
5948 2200 1711
5949 1066 7346
5950 7279 9515
5951 4755 1890
5952 9082 6430
5953 1437 8866
5954 4556 2711
5955 6561 8075
5956 3586 2448
5957 7623 9422
5958 9543 9894
5959 7923 5050
5960 1666 916 
5961 8812 9458
5962 4880 2816
5963 6650 8766
5964 3111 1096
5965 4226 730 
5966 7385 9246
5967 8442 9787
5968 5895 7538
5969 7965 7787
5970 521  6807
5971 9579 9249
5972 8724 8786
5973 6879 8673
5974 106  3013
5975 7538 5869
5976 773  7973
5977 8246 5368
5978 324  7268
5979 8007 7160
5980 7918 7853
5981 7486 9308
5982 3301 4341
5983 484  3426
5984 6512 6062
5985 7885 7893
5986 4759 1799
5987 7210 8488
5988 1087 3718
5989 822  5794
5990 1199 8567
5991 1403 8494
5992 4404 2622
5993 1024 2860
5994 5615 2973
5995 8263 4797
5996 375  8498
5997 541  2555
5998 5031 3092
5999 790  8781
6000 555  3359
6001 4533 1928
6002 147  4453
6003 8122 9607
6004 645  8535
6005 627  4530
6006 8311 4374
6007 3856 4661
6008 6855 5695
6009 7781 5377
6010 1725 8473
6011 760  3456
6012 9035 7887
6013 8095 4202
6014 1208 8667
6015 428  3884
6016 8522 9266
6017 1230 9094
6018 4621 2696
6019 6361 2100
6020 6754 7672
6021 8034 4974
6022 7387 9494
6023 8601 5150
6024 4968 2647
6025 427  8706
6026 7242 8334
6027 8208 8864
6028 9278 8421
6029 4703 4697
6030 5159 1878
6031 4698 2394
6032 542  5225
6033 7743 8197
6034 7435 9216
6035 7441 3938
6036 6165 9220
6037 8321 9565
6038 6964 8850
6039 7800 3477
6040 3963 2358
6041 7540 9207
6042 6908 4447
6043 343  3184
6044 7946 6180
6045 5931 5288
6046 6575 7285
6047 7054 9435
6048 164  3353
6049 2430 2366
6050 7016 8624
6051 7909 4503
6052 8084 7470
6053 970  7689
6054 7851 9034
6055 1622 8226
6056 4431 3106
6057 8337 4170
6058 6320 8956
6059 734  9084
6060 5951 4694
6061 4716 2303
6062 4586 8285
6063 6886 2959
6064 7493 9054
6065 5745 6472
6066 4716 2830
6067 8114 6872
6068 7579 8493
6069 1195 9522
6070 59   8444
6071 8231 5345
6072 7909 9016
6073 4021 1444
6074 9226 5108
6075 8691 6381
6076 765  8761
6077 7718 8954
6078 1703 7860
6079 8653 6169
6080 7796 7742
6081 8333 8453
6082 9440 5092
6083 8339 9107
6084 5482 1649
6085 3983 1854
6086 99   8001
6087 150  8913
6088 8326 8831
6089 6508 8019
6090 656  8758
6091 7420 8706
6092 300  3409
6093 5304 3212
6094 4233 3097
6095 7227 8052
6096 380  8299
6097 8089 8920
6098 7224 7163
6099 5086 7094
6100 5291 2875
6101 1211 8744
6102 4020 3899
6103 201  2202
6104 6392 5555
6105 8128 9499
6106 7737 5355
6107 6955 7505
6108 281  3878
6109 7220 7722
6110 520  8808
6111 5422 3029
6112 7700 9380
6113 4051 1876
6114 9268 7925
6115 7117 9658
6116 8677 8536
6117 5378 3382
6118 7787 6075
6119 4414 2355
6120 7943 9771
6121 7213 7946
6122 4386 2352
6123 992  7611
6124 118  3202
6125 16   9189
6126 5802 2225
6127 4661 2523
6128 8216 8763
6129 8459 5923
6130 795  8403
6131 6672 9493
6132 7020 7024
6133 294  2860
6134 8467 8404
6135 3889 2852
6136 7747 9806
6137 4301 2817
6138 7292 5756
6139 8428 9113
6140 9124 9294
6141 454  2814
6142 1434 8671
6143 7143 5118
6144 7527 2408
6145 170  3292
6146 863  9962
6147 9594 8603
6148 7979 8961
6149 4121 2166
6150 8267 5011
6151 9029 8899
6152 7998 5633
6153 252  6827
6154 965  7248
6155 7543 8439
6156 6531 9096
6157 5829 921 
6158 4028 2113
6159 9741 5778
6160 7739 6431
6161 8589 4923
6162 879  3804
6163 7049 2384
6164 1163 8519
6165 4932 2599
6166 8783 9773
6167 7327 8435
6168 6692 7727
6169 507  8723
6170 646  2933
6171 4401 3682
6172 8060 5103
6173 576  9008
6174 553  2174
6175 6771 3487
6176 7658 8158
6177 8923 6708
6178 7824 7940
6179 8589 4718
6180 8200 9452
6181 7401 7759
6182 1398 7504
6183 7736 9230
6184 7054 8108
6185 8798 8650
6186 546  2880
6187 7407 8231
6188 3667 4480
6189 1474 8581
6190 5069 2325
6191 431  2575
6192 1707 9905
6193 95   3406
6194 4311 2742
6195 8202 9170
6196 291  4821
6197 828  7700
6198 9467 5566
6199 6415 5444
6200 7694 5335
6201 4644 3070
6202 4436 3761
6203 8467 8500
6204 8634 7297
6205 5984 5422
6206 8866 9950
6207 6304 9260
6208 7822 7227
6209 5689 2906
6210 4246 3805
6211 1127 7818
6212 1440 1929
6213 8722 3080
6214 4605 2799
6215 1038 4374
6216 7124 8109
6217 8006 9089
6218 5054 43  
6219 1651 1560
6220 648  8252
6221 4354 2277
6222 434  2292
6223 846  8189
6224 6746 8756
6225 6938 5748
6226 4655 1785
6227 416  5843
6228 4710 2627
6229 13   8231
6230 8307 5315
6231 246  3325
6232 2295 3628
6233 683  8947
6234 7445 7925
6235 3696 2472
6236 7315 3512
6237 1004 3019
6238 7751 5033
6239 8656 5420
6240 8150 9368
6241 7541 6998
6242 844  7175
6243 7875 5738
6244 8473 4423
6245 861  8310
6246 645  2798
6247 6922 7829
6248 608  3935
6249 8067 5604
6250 8778 8546
6251 4508 3153
6252 6537 6894
6253 595  8391
6254 8037 8465
6255 7749 8455
6256 7632 8574
6257 9061 7441
6258 5961 6314
6259 8057 5741
6260 7260 7969
6261 7887 8329
6262 8049 5584
6263 2382 2184
6264 8598 7262
6265 6813 8668
6266 588  9197
6267 6922 8006
6268 5246 2775
6269 6779 5293
6270 5095 2297
6271 212  9351
6272 8317 8761
6273 805  9666
6274 8775 5294
6275 5563 2840
6276 4114 3525
6277 7386 8790
6278 7603 7611
6279 224  8720
6280 7393 8128
6281 5979 7081
6282 8092 3832
6283 7815 9466
6284 84   8961
6285 2869 2174
6286 4060 3988
6287 7491 5011
6288 5676 2078
6289 7481 2229
6290 1518 4040
6291 7382 8574
6292 1547 6154
6293 5126 3463
6294 4755 3763
6295 7442 8793
6296 8241 7275
6297 4588 504 
6298 7575 8137
6299 5580 3230
6300 4185 2472
6301 5462 1994
6302 4441 2006
6303 722  2750
6304 6138 4908
6305 2334 5817
6306 350  8408
6307 7590 4978
6308 1804 8001
6309 1297 8617
6310 4332 1697
6311 3091 2003
6312 4187 2222
6313 9233 9574
6314 7158 6257
6315 8594 4274
6316 5809 3802
6317 9191 4980
6318 6623 6343
6319 722  8175
6320 4532 2049
6321 692  8961
6322 14   8493
6323 475  8140
6324 475  8061
6325 5148 1554
6326 260  2995
6327 8097 6224
6328 7894 9008
6329 7417 9644
6330 795  3723
6331 4822 2944
6332 450  3440
6333 8017 8179
6334 609  7993
6335 7665 7100
6336 7827 7793
6337 7562 5107
6338 631  2632
6339 541  8257
6340 1340 4436
6341 7219 8940
6342 691  2807
6343 6671 7854
6344 4220 2636
6345 927  7647
6346 9152 9302
6347 441  8957
6348 7724 7097
6349 7236 5840
6350 6923 4385
6351 9647 9384
6352 272  3482
6353 8257 9483
6354 8009 9516
6355 454  8356
6356 6133 7611
6357 9058 4727
6358 261  7773
6359 7546 9324
6360 3937 1759
6361 2953 2388
6362 2811 2296
6363 4300 2488
6364 7771 8938
6365 580  2713
6366 7871 5762
6367 4777 2815
6368 4353 2279
6369 8441 9424
6370 8148 8908
6371 620  8352
6372 324  8719
6373 6926 5390
6374 4606 2407
6375 8336 9165
6376 8883 8241
6377 1172 446 
6378 7411 5509
6379 254  8284
6380 536  3756
6381 143  3556
6382 287  7677
6383 7405 7927
6384 7926 9068
6385 7030 7505
6386 4540 2999
6387 56   3493
6388 7246 9618
6389 7342 8397
6390 4282 3138
6391 7223 7791
6392 8034 9512
6393 1216 8824
6394 7151 9706
6395 7960 6029
6396 6892 8023
6397 7678 8114
6398 2352 3725
6399 4682 2473
6400 7650 6078
6401 3956 3284
6402 21   8906
6403 7001 8042
6404 8484 8774
6405 2860 3648
6406 1420 7943
6407 308  6954
6408 5826 3936
6409 682  1563
6410 7741 8280
6411 132  8415
6412 911  3162
6413 8127 6667
6414 2998 57  
6415 513  8598
6416 324  2199
6417 7110 7757
6418 139  7629
6419 3621 1630
6420 2787 3887
6421 2999 3434
6422 8123 5109
6423 6262 8219
6424 6957 6074
6425 795  3283
6426 7849 8841
6427 6888 6045
6428 6701 8510
6429 7894 9355
6430 1516 4055
6431 4743 2492
6432 7201 8763
6433 7680 8728
6434 2758 9887
6435 194  6093
6436 2280 3240
6437 4130 2828
6438 7453 7299
6439 8375 4537
6440 7762 7168
6441 4600 9885
6442 8068 8648
6443 567  3970
6444 8211 5861
6445 469  3747
6446 7181 9339
6447 7761 5413
6448 7786 9662
6449 782  8592
6450 8664 9532
6451 5009 2462
6452 2112 3943
6453 7535 714 
6454 6438 9453
6455 302  3348
6456 7809 8191
6457 268  4340
6458 1052 9585
6459 8264 5432
6460 8475 8001
6461 8265 5346
6462 467  3268
6463 8555 9027
6464 7829 8670
6465 5118 3484
6466 8146 4106
6467 445  3153
6468 831  3549
6469 1529 3723
6470 8259 5260
6471 419  8675
6472 7403 5186
6473 6694 7774
6474 9517 2952
6475 1160 8380
6476 7482 5657
6477 4835 2392
6478 700  4223
6479 1645 2543
6480 579  7189
6481 3982 2171
6482 889  8589
6483 7844 6591
6484 18   8597
6485 1486 9538
6486 6605 7222
6487 7631 9014
6488 6527 8454
6489 3492 2898
6490 6483 6447
6491 529  2263
6492 5125 2103
6493 7584 8456
6494 7738 8184
6495 3884 2202
6496 7418 4324
6497 938  3348
6498 7472 7416
6499 8652 5442
6500 8285 6503
6501 4326 1896
6502 1695 2631
6503 9571 9763
6504 6797 8184
6505 7701 4035
6506 4890 2757
6507 6504 6834
6508 8009 9444
6509 8287 5890
6510 7350 8011
6511 8843 5071
6512 9361 5006
6513 4214 2933
6514 7366 5934
6515 794  8943
6516 7776 4828
6517 7029 9999
6518 3939 992 
6519 5582 4934
6520 5997 2353
6521 142  3509
6522 7204 8043
6523 8670 9249
6524 5535 2429
6525 9716 4012
6526 4621 2541
6527 7971 6134
6528 1627 9505
6529 9501 8221
6530 8670 5399
6531 863  8813
6532 8103 9733
6533 8270 8206
6534 4614 2481
6535 3916 1782
6536 6050 7933
6537 9920 7899
6538 697  9361
6539 4935 2415
6540 8720 7646
6541 7044 7279
6542 3835 3282
6543 3809 1839
6544 3760 2689
6545 4367 2731
6546 7981 4476
6547 4552 2280
6548 7817 4843
6549 9535 5879
6550 4042 2327
6551 203  8431
6552 5314 595 
6553 7784 5325
6554 7570 7769
6555 7757 9144
6556 8575 8229
6557 1516 8166
6558 7083 8189
6559 7287 8387
6560 2495 8182
6561 180  9919
6562 4984 1168
6563 5237 3618
6564 7687 9561
6565 6913 9225
6566 6390 1694
6567 373  4051
6568 7806 5260
6569 4359 1315
6570 59   4020
6571 7215 5431
6572 3411 3207
6573 7898 9603
6574 7978 7086
6575 8439 5344
6576 14   8096
6577 8465 9206
6578 1011 3478
6579 7167 7772
6580 7103 3755
6581 5994 3080
6582 6764 9306
6583 1055 8911
6584 5174 2510
6585 6323 7862
6586 6854 7414
6587 9238 9565
6588 4767 3201
6589 6978 5767
6590 7721 4461
6591 126  2421
6592 257  4172
6593 1276 2064
6594 4833 2573
6595 472  9051
6596 8731 6127
6597 5521 1758
6598 7516 7786
6599 5099 4086
6600 8309 9220
6601 2198 2386
6602 5604 3189
6603 6925 9567
6604 7722 8028
6605 7169 6424
6606 8072 3939
6607 1604 3497
6608 7899 8659
6609 5816 7844
6610 8192 9067
6611 7921 8152
6612 8515 6601
6613 1770 9847
6614 9139 6103
6615 689  8590
6616 8578 7844
6617 9440 9724
6618 7772 8536
6619 8051 7858
6620 5148 8125
6621 7863 5846
6622 523  8195
6623 3988 1578
6624 118  3058
6625 8357 9467
6626 2115 3472
6627 5429 3149
6628 3773 1969
6629 6846 8684
6630 336  7494
6631 4556 1755
6632 8063 9897
6633 4832 4691
6634 5667 7809
6635 4652 8006
6636 2126 5775
6637 8549 5277
6638 271  8239
6639 4544 2714
6640 86   2925
6641 8069 5163
6642 7649 8154
6643 7120 7498
6644 4793 1541
6645 8705 9307
6646 2233 1907
6647 8252 5315
6648 4476 2452
6649 3464 4967
6650 643  4711
6651 1204 3757
6652 4584 3629
6653 7253 7104
6654 4582 1916
6655 4057 2565
6656 4187 2096
6657 8473 3675
6658 7191 8998
6659 20   3025
6660 3270 7588
6661 7874 5414
6662 8986 5422
6663 8692 4600
6664 7137 5232
6665 1552 3651
6666 5135 3008
6667 7065 5331
6668 7816 5619
6669 7093 4138
6670 7034 8234
6671 567  8635
6672 1445 9153
6673 4821 2579
6674 5968 8971
6675 344  2087
6676 8035 5130
6677 5635 6698
6678 9648 4829
6679 6633 9756
6680 6458 5151
6681 931  5727
6682 7274 8053
6683 4302 2467
6684 8358 6126
6685 6447 8859
6686 6715 8635
6687 7764 6786
6688 7967 5014
6689 8457 5771
6690 125  7468
6691 1772 2878
6692 1378 2850
6693 382  3225
6694 7157 9075
6695 470  7768
6696 4379 2092
6697 8    8490
6698 4818 4071
6699 7107 9545
6700 4811 2145
6701 8104 7506
6702 7296 9808
6703 7305 4255
6704 9064 4721
6705 484  5044
6706 9768 8079
6707 7708 8531
6708 35   3919
6709 8367 8546
6710 4031 1993
6711 7593 8797
6712 7473 9433
6713 7393 7719
6714 4319 3156
6715 2339 8602
6716 82   3582
6717 5632 7543
6718 8826 4946
6719 7217 4356
6720 78   4086
6721 7844 4455
6722 6275 6937
6723 7932 7889
6724 8213 9877
6725 9020 7165
6726 1260 3846
6727 707  3998
6728 4905 2327
6729 6538 9237
6730 969  3768
6731 6722 8827
6732 6020 3516
6733 2435 1612
6734 7904 6100
6735 8245 5603
6736 527  3297
6737 8212 6876
6738 7914 4993
6739 7986 9654
6740 8320 7029
6741 4509 2356
6742 7714 7028
6743 7234 7498
6744 689  7298
6745 303  8594
6746 7590 7446
6747 8216 9640
6748 5275 6625
6749 2958 9790
6750 9150 6595
6751 1536 4338
6752 4932 2043
6753 732  8376
6754 7960 8456
6755 7826 8163
6756 9100 7456
6757 8914 8655
6758 1015 8381
6759 502  3443
6760 8344 4707
6761 2852 7586
6762 8228 5309
6763 9648 5382
6764 7627 8138
6765 399  2176
6766 7217 8129
6767 8406 5381
6768 6420 3240
6769 1141 8753
6770 7953 5426
6771 61   7271
6772 8237 8279
6773 920  7719
6774 18   6991
6775 1356 8762
6776 961  3888
6777 4010 2989
6778 8480 5265
6779 7080 8392
6780 7883 3579
6781 7291 8840
6782 7998 7844
6783 8182 5505
6784 690  5281
6785 833  3551
6786 9319 9493
6787 7836 9328
6788 5952 8249
6789 322  2920
6790 7830 8868
6791 6535 7088
6792 9353 5395
6793 8611 6116
6794 4708 3147
6795 8165 5827
6796 6724 8509
6797 5008 3967
6798 6520 7036
6799 790  2714
6800 8615 6053
6801 1942 2521
6802 8313 5317
6803 3214 9755
6804 6086 3732
6805 8047 4988
6806 9294 5408
6807 5584 3220
6808 9287 5256
6809 8026 5049
6810 6046 7462
6811 8117 7534
6812 421  8617
6813 7846 5988
6814 5961 3918
6815 7601 6406
6816 4704 2707
6817 1606 7419
6818 805  5303
6819 3647 1788
6820 8439 2820
6821 4331 3569
6822 4271 3448
6823 7956 6582
6824 7504 8484
6825 3392 2535
6826 6323 9942
6827 7576 8886
6828 5428 2830
6829 7527 9289
6830 7912 7908
6831 8702 4780
6832 67   2787
6833 9513 8834
6834 7614 5833
6835 7220 7732
6836 5346 1846
6837 1420 2110
6838 7440 8308
6839 1240 4577
6840 4824 3092
6841 7464 5432
6842 6738 8323
6843 7662 5695
6844 646  8093
6845 349  7987
6846 4350 2580
6847 65   3227
6848 1287 2535
6849 401  8308
6850 8141 8475
6851 420  3319
6852 1327 8775
6853 8182 7453
6854 7449 9185
6855 8787 8109
6856 7497 9747
6857 95   8423
6858 7326 6158
6859 9181 9208
6860 4476 1920
6861 7970 6181
6862 8235 8108
6863 2255 7547
6864 1670 8745
6865 7655 5624
6866 359  2457
6867 4835 3752
6868 887  9475
6869 7546 8296
6870 8655 3623
6871 7085 8127
6872 1142 4032
6873 907  8900
6874 7546 9179
6875 834  3049
6876 8401 5505
6877 4200 2504
6878 706  9826
6879 7923 8414
6880 9435 4829
6881 348  8261
6882 8658 8773
6883 8806 6369
6884 5465 1856
6885 1217 8809
6886 2778 3096
6887 8312 4509
6888 1030 3695
6889 6963 3124
6890 5077 2488
6891 4574 3526
6892 8841 5934
6893 9282 4828
6894 8523 5035
6895 5296 2171
6896 7646 6737
6897 3898 1796
6898 7316 7634
6899 23   3213
6900 7698 5259
6901 4566 2069
6902 5811 4392
6903 1093 8836
6904 7593 9408
6905 8163 9442
6906 6721 9849
6907 8193 9381
6908 244  9030
6909 2369 7914
6910 624  3353
6911 5414 7153
6912 3185 2683
6913 7793 9614
6914 4450 2469
6915 9141 6037
6916 4326 3688
6917 5168 2403
6918 16   3203
6919 417  3696
6920 8190 8861
6921 7534 8044
6922 6808 4878
6923 8934 9072
6924 7784 5326
6925 65   3318
6926 8504 9287
6927 5287 2299
6928 7873 8752
6929 7733 7650
6930 7290 8188
6931 56   5774
6932 137  9387
6933 3904 3600
6934 8014 7680
6935 8371 9133
6936 89   7509
6937 6935 5400
6938 1022 9781
6939 8190 9166
6940 1600 8275
6941 1547 3831
6942 7877 8148
6943 8651 5010
6944 6671 7312
6945 7370 9896
6946 7813 9156
6947 5251 1772
6948 4490 779 
6949 7320 9831
6950 7800 9927
6951 7892 9155
6952 6018 819 
6953 5442 2485
6954 7812 5231
6955 6752 8147
6956 1299 8708
6957 6791 5427
6958 1379 9554
6959 573  8301
6960 6892 5379
6961 7071 8509
6962 666  2779
6963 7793 6460
6964 7895 5802
6965 1436 9770
6966 293  2727
6967 6671 7719
6968 8416 5834
6969 5781 3110
6970 2219 8984
6971 6754 8804
6972 326  3941
6973 6547 8520
6974 6719 8614
6975 7661 7822
6976 7866 8631
6977 1251 8916
6978 288  3211
6979 8931 7987
6980 6231 6758
6981 9610 5046
6982 8678 9658
6983 1006 9462
6984 789  3993
6985 40   2936
6986 4154 2979
6987 6589 9237
6988 258  8803
6989 5501 3043
6990 4591 879 
6991 7675 8355
6992 5238 2302
6993 1362 6391
6994 1487 9819
6995 8362 8051
6996 7606 5125
6997 1264 8508
6998 4595 1989
6999 3921 2680
7000 8878 6580
7001 1240 5021
7002 4851 2588
7003 737  6636
7004 6801 9280
7005 6075 2003
7006 7867 5905
7007 360  3837
7008 1292 5227
7009 7150 5347
7010 4638 2669
7011 7504 8684
7012 667  8343
7013 8355 3247
7014 7737 8946
7015 8157 7540
7016 3015 2982
7017 7616 5383
7018 8264 3762
7019 2576 7919
7020 3972 1912
7021 4067 2118
7022 8096 7040
7023 3160 3346
7024 8341 9435
7025 8817 5611
7026 7944 4767
7027 8678 9950
7028 7041 8199
7029 4402 1650
7030 3326 1854
7031 7915 6639
7032 2495 7701
7033 4340 2766
7034 6781 2384
7035 7064 9674
7036 9180 8747
7037 1758 9757
7038 8906 8577
7039 145  8247
7040 1201 2875
7041 4539 2881
7042 605  8830
7043 4170 3216
7044 8561 2144
7045 8114 4837
7046 8123 8364
7047 7545 8462
7048 4175 3026
7049 8262 8655
7050 5959 8407
7051 7828 4758
7052 4301 2648
7053 8192 6701
7054 1879 8844
7055 4870 2700
7056 6081 9792
7057 1320 1604
7058 3641 3024
7059 4399 3576
7060 4840 2721
7061 991  9934
7062 4573 2485
7063 8228 6829
7064 7688 7998
7065 4694 619 
7066 4197 2945
7067 439  8422
7068 7308 7772
7069 4407 1842
7070 7966 9190
7071 7376 7665
7072 49   8978
7073 8235 5988
7074 7755 9381
7075 8733 5492
7076 7985 5376
7077 4039 3117
7078 3980 2278
7079 7858 5646
7080 9306 4749
7081 496  2893
7082 8067 9614
7083 8403 6866
7084 6687 3464
7085 5462 6038
7086 7613 5854
7087 7586 9224
7088 2160 1566
7089 340  7978
7090 8312 6424
7091 146  4083
7092 1609 542 
7093 214  2662
7094 8016 4723
7095 2274 9392
7096 4328 2700
7097 7430 8390
7098 8027 5336
7099 8337 5355
7100 8189 9183
7101 3721 3689
7102 9811 5691
7103 7674 9747
7104 7021 8161
7105 278  5785
7106 1093 3536
7107 2767 3456
7108 3584 2418
7109 8254 7752
7110 8279 4695
7111 6219 8854
7112 8198 5794
7113 3692 1962
7114 8021 5260
7115 855  8013
7116 4627 2049
7117 7470 8022
7118 374  9364
7119 18   4173
7120 155  8858
7121 7406 5151
7122 1188 8326
7123 8368 9712
7124 1088 8210
7125 7700 6090
7126 8471 7502
7127 271  3293
7128 1342 4307
7129 8250 7792
7130 7495 8488
7131 5227 2737
7132 8801 5527
7133 8250 5527
7134 90   4090
7135 6750 8137
7136 7942 6901
7137 8109 9661
7138 9534 3557
7139 4737 1436
7140 2895 504 
7141 8106 9201
7142 1558 8054
7143 8229 8784
7144 7008 9176
7145 9284 5498
7146 395  9889
7147 7370 9952
7148 1325 8415
7149 7389 2767
7150 632  8522
7151 6093 8864
7152 7623 5422
7153 9272 5894
7154 6936 4955
7155 8581 5127
7156 314  3235
7157 7315 8954
7158 156  8163
7159 7714 8074
7160 126  7288
7161 7376 8433
7162 6773 8015
7163 7454 9760
7164 8093 9128
7165 485  3307
7166 4798 3427
7167 550  8766
7168 8323 8393
7169 7429 9504
7170 7235 9021
7171 6444 1731
7172 372  3099
7173 2963 1320
7174 7048 5262
7175 7956 8429
7176 8298 7806
7177 8305 5163
7178 6406 9556
7179 7109 7188
7180 7236 8162
7181 3039 3262
7182 7891 7487
7183 8529 4999
7184 498  3823
7185 2767 2848
7186 718  3032
7187 657  4088
7188 1197 8146
7189 7757 6602
7190 6819 9371
7191 7441 5892
7192 5120 3095
7193 8777 5690
7194 791  9074
7195 2760 429 
7196 1438 3444
7197 7869 8512
7198 7578 7979
7199 874  8791
7200 8571 2808
7201 3114 294 
7202 4424 2090
7203 7536 6263
7204 356  3566
7205 8527 5320
7206 8728 8770
7207 7139 9265
7208 579  8401
7209 7929 7881
7210 8099 9497
7211 7759 9943
7212 1290 2148
7213 7690 9510
7214 4373 3037
7215 9767 9863
7216 1276 3265
7217 9327 4527
7218 5074 2893
7219 6927 7543
7220 77   2639
7221 5379 2676
7222 7650 8099
7223 7936 8478
7224 9458 9013
7225 7854 4093
7226 168  3524
7227 9063 8142
7228 8018 9590
7229 3786 2095
7230 572  8610
7231 3373 1820
7232 368  8384
7233 1509 8891
7234 218  3786
7235 7546 8198
7236 6831 9292
7237 5305 3678
7238 7287 9745
7239 1248 4270
7240 5966 8260
7241 7624 4032
7242 8059 9036
7243 1048 4678
7244 3225 954 
7245 5234 3251
7246 468  6697
7247 7440 8111
7248 7711 8650
7249 9163 6308
7250 6299 7890
7251 6780 5161
7252 7764 8542
7253 89   2670
7254 7868 5505
7255 5068 2378
7256 4789 2732
7257 859  7970
7258 7680 7932
7259 7080 9155
7260 5202 1763
7261 1904 8351
7262 7078 4874
7263 1303 9591
7264 7604 7499
7265 7434 8123
7266 7521 7712
7267 7465 8088
7268 9188 4894
7269 806  9134
7270 7738 7896
7271 1094 7709
7272 7400 7788
7273 7654 9377
7274 2154 1542
7275 8041 5297
7276 347  3333
7277 4712 2769
7278 7782 9617
7279 1001 9971
7280 6758 1200
7281 7817 4909
7282 7703 7248
7283 1684 5109
7284 29   1462
7285 1470 5829
7286 563  4426
7287 6283 5523
7288 8046 5832
7289 1879 9970
7290 3958 3352
7291 7976 8566
7292 4747 2397
7293 8544 5640
7294 6031 8016
7295 52   8123
7296 1308 3154
7297 7857 7836
7298 5213 3372
7299 3399 2192
7300 329  4600
7301 763  8963
7302 6948 8171
7303 5434 1562
7304 7195 9775
7305 8415 8186
7306 1738 2485
7307 4827 3007
7308 1042 4776
7309 194  8720
7310 1059 1903
7311 6436 8624
7312 8452 7546
7313 9933 9566
7314 7793 8282
7315 5288 4209
7316 2874 7526
7317 3072 1217
7318 1230 2059
7319 3775 3977
7320 252  3037
7321 7829 9027
7322 1444 7789
7323 1093 2830
7324 7572 9600
7325 3950 1185
7326 7754 8120
7327 6718 8894
7328 510  4164
7329 7518 4772
7330 8137 8742
7331 6849 5666
7332 5730 2864
7333 5615 3382
7334 166  9707
7335 732  4426
7336 6620 6550
7337 4088 1817
7338 6630 7956
7339 4209 2392
7340 3329 2613
7341 8363 4913
7342 7113 9844
7343 536  3055
7344 7753 9450
7345 506  3749
7346 1926 5337
7347 796  2081
7348 1803 3334
7349 8596 8464
7350 389  7689
7351 8152 9800
7352 7762 8066
7353 1112 8739
7354 750  7478
7355 278  2649
7356 635  9273
7357 6350 3335
7358 8088 9358
7359 4809 2590
7360 7886 5373
7361 4422 3059
7362 6959 6744
7363 354  7988
7364 7443 8172
7365 7239 7793
7366 1217 2986
7367 4321 6525
7368 618  5818
7369 402  3243
7370 8204 5142
7371 8471 7239
7372 1081 3979
7373 6481 8582
7374 6370 2834
7375 3837 2166
7376 3941 3252
7377 4689 2403
7378 5395 2539
7379 5281 1695
7380 8071 8707
7381 8005 6623
7382 7210 2475
7383 451  3648
7384 8730 5411
7385 5104 3234
7386 3918 2840
7387 8562 9426
7388 8414 6259
7389 8195 5317
7390 4619 2302
7391 171  5271
7392 747  4399
7393 9833 5721
7394 1409 8246
7395 4798 6435
7396 6119 7739
7397 7425 9456
7398 6287 8373
7399 8220 6403
7400 4542 2557
7401 8530 9063
7402 542  8444
7403 8385 8296
7404 8291 5683
7405 7659 8693
7406 8015 6291
7407 7857 4461
7408 6409 9061
7409 8102 9231
7410 733  4135
7411 7748 5669
7412 5108 7105
7413 9386 9017
7414 8301 9206
7415 8208 6800
7416 7863 5488
7417 8166 8636
7418 5880 8731
7419 692  2815
7420 7487 8307
7421 376  3951
7422 6980 9069
7423 8378 5407
7424 6778 6782
7425 7772 5210
7426 8380 6712
7427 7519 8901
7428 6457 7155
7429 8300 5324
7430 4338 2833
7431 342  4046
7432 7408 7983
7433 152  3958
7434 4953 3112
7435 6833 4145
7436 967  3534
7437 5525 1946
7438 4224 2746
7439 5569 1562
7440 8141 6446
7441 7724 8787
7442 3997 3105
7443 7753 9585
7444 6924 9629
7445 5618 3381
7446 8015 6990
7447 8333 5580
7448 8329 9140
7449 5277 2483
7450 7457 9083
7451 1689 9683
7452 5186 1460
7453 194  3147
7454 6650 8092
7455 1215 3382
7456 8774 5069
7457 1724 8915
7458 6115 5049
7459 8432 2947
7460 1970 6747
7461 426  7372
7462 50   3505
7463 7623 6899
7464 5108 1756
7465 659  8364
7466 4753 2585
7467 132  2403
7468 7645 8238
7469 1793 4893
7470 7856 9523
7471 6475 7308
7472 325  3422
7473 143  7993
7474 4191 770 
7475 8780 8599
7476 4971 2546
7477 7893 9486
7478 7023 8066
7479 8072 5312
7480 8580 4145
7481 4694 2030
7482 7957 9929
7483 8992 5857
7484 5780 9517
7485 8457 4910
7486 8278 5846
7487 7689 7082
7488 8702 9546
7489 7998 8371
7490 1493 1427
7491 7963 5300
7492 7714 5823
7493 327  7786
7494 6573 7742
7495 9085 4933
7496 7772 5519
7497 7731 7993
7498 7852 8106
7499 941  3327
7500 2301 4614
7501 50   7968
7502 4561 2824
7503 8839 9557
7504 1319 4314
7505 8591 4889
7506 4102 2849
7507 9500 7927
7508 174  2733
7509 6292 4971
7510 8033 9106
7511 8146 5402
7512 167  3248
7513 2033 7734
7514 7985 7191
7515 8004 8053
7516 1292 7612
7517 8530 8478
7518 509  4911
7519 8633 7804
7520 484  9294
7521 655  8573
7522 8014 6752
7523 7588 8803
7524 8370 9628
7525 8117 5176
7526 871  8757
7527 5080 3120
7528 5593 3353
7529 7076 8366
7530 5416 3109
7531 1145 2454
7532 6611 6910
7533 844  8808
7534 187  3638
7535 7235 8598
7536 7928 4486
7537 4685 2660
7538 137  3529
7539 4991 3372
7540 4730 2635
7541 664  2594
7542 702  9701
7543 7825 6423
7544 7453 8098
7545 6368 6917
7546 8173 8661
7547 5336 7507
7548 548  3151
7549 3036 2487
7550 177  6646
7551 7848 7506
7552 4844 3025
7553 1733 4000
7554 151  2650
7555 284  7898
7556 6495 7838
7557 9220 4884
7558 5061 1815
7559 1330 7486
7560 8014 4374
7561 7571 8647
7562 5097 2423
7563 750  3707
7564 7337 8049
7565 7499 6840
7566 400  8025
7567 97   3553
7568 8316 5426
7569 896  3253
7570 5379 5965
7571 8408 7620
7572 4254 3094
7573 6712 8932
7574 8405 4612
7575 7625 4094
7576 134  2193
7577 8906 8162
7578 2044 2847
7579 7823 4150
7580 2883 1420
7581 307  5395
7582 5018 3030
7583 60   7740
7584 7947 5699
7585 211  3483
7586 5094 1465
7587 600  4962
7588 1364 8357
7589 1348 7522
7590 6047 3968
7591 41   4685
7592 3197 2514
7593 7484 8215
7594 1790 9090
7595 9773 4955
7596 580  3606
7597 1137 6999
7598 8480 7881
7599 396  8172
7600 9309 6815
7601 5005 2607
7602 8934 6421
7603 7803 9127
7604 730  8560
7605 1298 9790
7606 6883 7865
7607 4172 3097
7608 1060 5197
7609 8435 9859
7610 353  8476
7611 249  8419
7612 6105 8317
7613 6853 7615
7614 7939 9209
7615 5902 7120
7616 1256 3159
7617 9002 8999
7618 1121 8936
7619 4050 1821
7620 7020 8400
7621 4763 1025
7622 6558 7727
7623 4973 4344
7624 7990 9709
7625 7262 9442
7626 2933 3234
7627 4660 3019
7628 7819 8317
7629 525  9681
7630 422  8098
7631 7709 4761
7632 717  8341
7633 8157 9701
7634 8231 8756
7635 8007 5603
7636 4872 4611
7637 672  9344
7638 8052 4867
7639 7539 4464
7640 1812 7911
7641 8398 8078
7642 4736 7876
7643 349  8164
7644 7279 7194
7645 7951 5465
7646 1415 8120
7647 3941 2861
7648 7937 8741
7649 7345 5336
7650 8629 3622
7651 1476 8159
7652 6845 7268
7653 3367 6535
7654 7398 8227
7655 5676 3293
7656 7660 7837
7657 4848 2157
7658 5752 2311
7659 9908 4373
7660 5759 8691
7661 1940 7787
7662 1159 8210
7663 2848 1041
7664 1267 3929
7665 395  3416
7666 7495 9739
7667 8101 7837
7668 1149 4357
7669 5897 4825
7670 7317 5979
7671 7800 6929
7672 7475 8849
7673 5202 3278
7674 176  4029
7675 6857 8304
7676 7263 3959
7677 7859 8353
7678 5438 2081
7679 644  8550
7680 719  3609
7681 6929 6036
7682 6902 8819
7683 6543 5512
7684 7830 9181
7685 6063 8179
7686 6471 8982
7687 7944 9690
7688 1706 3752
7689 8621 8364
7690 5585 8488
7691 562  2595
7692 8427 9547
7693 8717 5326
7694 7599 8095
7695 763  7878
7696 8652 8280
7697 7716 5613
7698 8497 5727
7699 8117 5982
7700 8164 7510
7701 5630 4606
7702 1344 7748
7703 4957 2883
7704 9015 8557
7705 181  3348
7706 8329 8974
7707 526  3652
7708 5049 2853
7709 5461 8168
7710 4435 3650
7711 4503 2784
7712 9299 6093
7713 4100 3348
7714 4016 1613
7715 7755 8595
7716 7718 9615
7717 8334 5107
7718 1763 1813
7719 8320 7020
7720 3945 2450
7721 7601 8058
7722 8279 3922
7723 430  3542
7724 5181 2471
7725 3718 2855
7726 789  8630
7727 518  8618
7728 5653 2621
7729 154  8009
7730 1051 2950
7731 7409 5119
7732 9185 7240
7733 8597 5546
7734 4224 2186
7735 8126 5918
7736 1709 9044
7737 8437 7630
7738 279  9663
7739 825  8537
7740 7159 6455
7741 4345 1689
7742 1450 2959
7743 7423 3671
7744 7677 8506
7745 4639 1194
7746 7473 5135
7747 5173 2030
7748 3694 863 
7749 8486 9672
7750 6327 7435
7751 9228 5145
7752 8638 5148
7753 7169 7059
7754 8420 5945
7755 8247 8975
7756 60   8384
7757 1729 3754
7758 9729 9441
7759 8384 9431
7760 749  8492
7761 7664 9637
7762 385  8685
7763 52   3454
7764 2658 3201
7765 212  2953
7766 550  8045
7767 6918 7781
7768 7503 8753
7769 7923 4319
7770 372  2915
7771 7208 7692
7772 7621 8902
7773 39   2829
7774 7547 7974
7775 7965 9675
7776 6568 1511
7777 4258 4142
7778 7775 8416
7779 7723 8499
7780 8268 9494
7781 7970 9490
7782 7759 4963
7783 4719 2677
7784 214  9221
7785 7399 7711
7786 7293 5240
7787 6881 7115
7788 7687 8736
7789 7296 5401
7790 288  3352
7791 7646 6498
7792 8771 8289
7793 798  3115
7794 7849 7600
7795 210  3270
7796 4236 2571
7797 2679 3910
7798 8081 7613
7799 4493 1029
7800 4020 6538
7801 8266 5710
7802 31   8759
7803 7432 9807
7804 3639 292 
7805 4534 2234
7806 686  3773
7807 8818 8512
7808 8389 7849
7809 4990 3034
7810 8271 9880
7811 6346 9764
7812 7994 5302
7813 8093 9802
7814 185  8910
7815 7663 8498
7816 683  8277
7817 7670 7932
7818 7614 5795
7819 6880 9198
7820 1085 9342
7821 5644 9272
7822 1125 7855
7823 5962 7470
7824 563  3225
7825 501  3504
7826 6840 4808
7827 7355 4347
7828 4346 2173
7829 1564 9571
7830 7216 6620
7831 7545 5132
7832 8866 5472
7833 564  8979
7834 5619 1942
7835 9311 9812
7836 4625 2449
7837 48   4123
7838 4045 4252
7839 7695 8432
7840 2708 3662
7841 4165 2186
7842 1412 9235
7843 9568 6575
7844 4766 2441
7845 5315 2824
7846 2559 7895
7847 823  8769
7848 7821 7221
7849 4616 2585
7850 674  3568
7851 192  3348
7852 6692 6952
7853 4056 752 
7854 8347 5497
7855 8312 8632
7856 6996 8787
7857 73   8056
7858 8167 5117
7859 373  2849
7860 2120 2293
7861 769  8369
7862 8347 5511
7863 6915 9618
7864 8796 7042
7865 521  3453
7866 6978 6124
7867 5109 3275
7868 166  7761
7869 8691 4533
7870 5299 799 
7871 6808 9319
7872 8284 3421
7873 9369 4984
7874 7371 4489
7875 4100 2042
7876 7680 2790
7877 6800 7478
7878 9142 8775
7879 8045 7272
7880 395  7509
7881 4875 2712
7882 8750 8226
7883 7896 8629
7884 1442 9220
7885 4242 875 
7886 905  2688
7887 8413 9800
7888 6946 8594
7889 7941 5491
7890 2461 8342
7891 6975 9147
7892 7271 8702
7893 9046 3655
7894 490  9268
7895 1284 7619
7896 8291 5030
7897 525  7872
7898 421  8840
7899 842  3944
7900 709  8485
7901 8837 7781
7902 4654 1854
7903 9418 9648
7904 7975 8525
7905 574  3382
7906 1007 3659
7907 6580 7110
7908 8203 789 
7909 900  4226
7910 7728 4782
7911 1095 2536
7912 1355 8652
7913 757  1557
7914 7636 9666
7915 7606 6671
7916 8316 9480
7917 191  5499
7918 7529 5661
7919 5044 1992
7920 8558 5641
7921 603  3868
7922 7466 7657
7923 8723 8156
7924 6639 7838
7925 6786 7626
7926 5091 3016
7927 8225 7132
7928 6482 6578
7929 8107 8473
7930 6846 6407
7931 8886 5951
7932 8204 5731
7933 9334 8088
7934 9442 8146
7935 4547 2807
7936 418  8373
7937 5869 1754
7938 7247 8481
7939 8296 9811
7940 7184 8108
7941 4185 2615
7942 3488 571 
7943 109  3682
7944 7339 7941
7945 7368 9547
7946 6372 7639
7947 1781 5727
7948 4179 3277
7949 651  7701
7950 4480 1822
7951 8979 5111
7952 2155 9656
7953 1514 8823
7954 748  8643
7955 192  3265
7956 7406 8107
7957 7290 7073
7958 3907 2733
7959 328  3329
7960 3673 2175
7961 7524 8111
7962 7698 8868
7963 622  666 
7964 9784 4610
7965 6417 9197
7966 262  3495
7967 1571 3808
7968 5737 4328
7969 4320 2886
7970 444  8898
7971 692  3367
7972 7588 5433
7973 7663 8167
7974 8570 9991
7975 9316 9570
7976 8167 4982
7977 8890 8944
7978 7539 8542
7979 4867 2058
7980 5083 3852
7981 1214 8214
7982 8552 4126
7983 752  3316
7984 7887 5769
7985 7837 5476
7986 7844 9278
7987 961  8151
7988 455  5926
7989 5759 1839
7990 1111 2786
7991 532  9084
7992 536  8653
7993 4579 3258
7994 287  3349
7995 7867 5366
7996 4423 1225
7997 7939 8854
7998 3806 2606
7999 8234 9136
8000 8848 5256
8001 8102 6338
8002 5313 998 
8003 8779 9428
8004 6962 8361
8005 1553 3543
8006 9014 7036
8007 8200 9167
8008 8253 8283
8009 7779 6304
8010 4098 2696
8011 4113 2369
8012 8519 3699
8013 6791 9201
8014 2263 8833
8015 3713 3458
8016 425  8398
8017 8478 5248
8018 8383 9458
8019 7958 6043
8020 4538 3197
8021 8558 9862
8022 66   5335
8023 6817 7986
8024 7611 8331
8025 8638 3341
8026 1682 2730
8027 4589 2230
8028 8582 5065
8029 7074 8211
8030 9023 9011
8031 8458 9209
8032 4500 3104
8033 4628 2269
8034 1830 8574
8035 8137 9162
8036 4928 2183
8037 8715 3489
8038 6464 7972
8039 993  3914
8040 4541 2852
8041 151  7353
8042 7804 9016
8043 8263 7770
8044 4436 2325
8045 8629 6705
8046 5157 2076
8047 1029 8887
8048 474  7267
8049 7152 9179
8050 8395 5909
8051 7220 8516
8052 6600 5040
8053 8449 6817
8054 6338 8666
8055 132  8339
8056 7452 8471
8057 7532 8773
8058 3666 2695
8059 9696 7345
8060 7678 9055
8061 286  7429
8062 5372 2733
8063 388  8628
8064 2551 9266
8065 7722 5823
8066 8299 8209
8067 1266 8323
8068 8715 5951
8069 995  9985
8070 7396 7629
8071 531  8461
8072 8320 9597
8073 8520 9733
8074 3999 2497
8075 5785 6673
8076 536  8634
8077 8350 7848
8078 8115 9315
8079 8153 8258
8080 6744 9098
8081 38   9107
8082 8037 9444
8083 28   8177
8084 8370 9051
8085 3437 3216
8086 8815 7402
8087 8676 5517
8088 5776 5679
8089 321  8510
8090 2479 7477
8091 6764 3916
8092 8338 4836
8093 7632 8055
8094 7720 7623
8095 3660 3018
8096 655  7411
8097 3964 3961
8098 7518 8175
8099 5143 3039
8100 7759 7863
8101 4565 2391
8102 4936 3413
8103 7658 7667
8104 7583 7600
8105 1953 7368
8106 884  7667
8107 890  3373
8108 8391 8605
8109 594  3969
8110 1565 3026
8111 172  8206
8112 8181 7483
8113 3714 2391
8114 3490 2615
8115 7500 8869
8116 7361 7337
8117 6093 7614
8118 8174 9975
8119 587  7153
8120 7982 8146
8121 2911 2864
8122 3365 1874
8123 7108 8140
8124 157  4387
8125 4863 1726
8126 7756 4156
8127 7847 5748
8128 5271 1363
8129 7182 8561
8130 4837 6119
8131 4305 2718
8132 1765 2482
8133 7887 5276
8134 7713 8805
8135 14   2682
8136 7779 7955
8137 562  3199
8138 8241 6093
8139 7369 4762
8140 6976 9627
8141 1021 883 
8142 8445 5846
8143 1647 7627
8144 7569 5685
8145 8691 8793
8146 8220 6849
8147 7050 4687
8148 5038 2764
8149 3772 1856
8150 8038 3950
8151 3649 6071
8152 8376 5457
8153 9587 9154
8154 4284 3276
8155 1882 4757
8156 2275 2124
8157 7825 5670
8158 1034 9540
8159 269  4431
8160 886  7155
8161 8597 6665
8162 7758 6011
8163 8668 7983
8164 6116 3638
8165 53   8998
8166 4204 2954
8167 4878 3896
8168 6582 9390
8169 243  1944
8170 326  2942
8171 6386 7549
8172 8373 5707
8173 7616 4855
8174 8275 5128
8175 8413 5139
8176 7810 9899
8177 437  8868
8178 4237 1394
8179 4302 3156
8180 3733 497 
8181 9222 6704
8182 4411 1456
8183 8298 9749
8184 7647 5357
8185 382  8863
8186 9706 4923
8187 6353 4720
8188 7766 7178
8189 8402 8139
8190 9118 9147
8191 8014 7807
8192 7724 7841
8193 6930 9560
8194 908  4492
8195 7173 8626
8196 4657 2977
8197 5964 9459
8198 236  4402
8199 9682 7558
8200 539  7953
8201 7605 7462
8202 7899 9512
8203 8697 9538
8204 7073 8480
8205 4160 1698
8206 811  9165
8207 2288 4422
8208 7399 9685
8209 1497 1681
8210 29   1752
8211 6618 7856
8212 6996 9435
8213 8596 4087
8214 8355 9314
8215 9768 7842
8216 7043 8886
8217 8965 9227
8218 7363 6477
8219 4373 2396
8220 6424 8666
8221 8706 9793
8222 122  8572
8223 7661 7985
8224 9468 4961
8225 8273 8336
8226 8258 9828
8227 7618 8529
8228 8468 5324
8229 229  2602
8230 1067 8523
8231 749  9154
8232 8143 5287
8233 8554 7383
8234 522  8927
8235 6639 7564
8236 7820 6657
8237 6633 8649
8238 7080 9684
8239 791  8873
8240 8532 5258
8241 4552 2726
8242 7116 6058
8243 7564 9724
8244 5751 4455
8245 290  4370
8246 1140 7776
8247 5654 2099
8248 8198 2713
8249 7977 9726
8250 5113 2548
8251 8513 7900
8252 729  3043
8253 390  3273
8254 957  3559
8255 4476 3630
8256 8126 9927
8257 6082 6353
8258 5163 3230
8259 7295 8083
8260 4005 2919
8261 7793 5441
8262 6877 6775
8263 6980 1365
8264 9091 9220
8265 1416 8655
8266 8972 7381
8267 8009 4845
8268 6550 7284
8269 2207 1639
8270 3427 2336
8271 532  6306
8272 3791 3331
8273 1680 5214
8274 8396 5798
8275 7221 6026
8276 468  9041
8277 7869 7163
8278 7966 7732
8279 5147 1817
8280 7738 9125
8281 8095 5613
8282 4233 1809
8283 9587 9302
8284 3283 3146
8285 24   9568
8286 8019 9140
8287 706  3379
8288 885  3803
8289 7548 7805
8290 9937 7303
8291 8125 9162
8292 8757 5853
8293 9356 8486
8294 2498 8650
8295 8473 9133
8296 4555 2583
8297 467  8441
8298 121  3246
8299 6440 2898
8300 4500 2583
8301 4818 3830
8302 8471 8837
8303 4227 2873
8304 5305 7460
8305 8562 6989
8306 4950 7195
8307 8422 5994
8308 316  3836
8309 7988 4576
8310 9377 6821
8311 2901 8479
8312 4927 4120
8313 1522 5554
8314 7373 8009
8315 7539 4705
8316 5558 9154
8317 7385 3315
8318 4079 2922
8319 8935 3641
8320 7108 8951
8321 104  4125
8322 2863 3111
8323 1449 4710
8324 2029 9845
8325 30   3384
8326 9037 7286
8327 6356 9645
8328 466  5123
8329 8753 6474
8330 8032 5388
8331 9029 9199
8332 9208 4460
8333 456  8369
8334 701  2606
8335 6965 8748
8336 8221 6725
8337 7235 7854
8338 7120 7975
8339 4732 2712
8340 7673 9789
8341 8185 5119
8342 4214 9201
8343 7961 9126
8344 1180 8323
8345 2579 803 
8346 2059 6971
8347 8066 5452
8348 7482 7175
8349 830  6339
8350 101  2924
8351 3935 3375
8352 3898 3676
8353 7878 4889
8354 3803 1925
8355 688  3212
8356 1785 9886
8357 8118 6583
8358 7318 8758
8359 361  8874
8360 7388 7599
8361 7645 9187
8362 6133 8114
8363 7952 8977
8364 4096 2555
8365 1565 7719
8366 455  7936
8367 7521 5059
8368 885  3451
8369 8259 5536
8370 7692 9043
8371 7007 8689
8372 6060 82  
8373 7102 8607
8374 7329 9383
8375 1143 8519
8376 7910 8809
8377 8378 7316
8378 8290 6300
8379 7708 5879
8380 5188 804 
8381 1122 7189
8382 7947 8948
8383 7430 8792
8384 7471 8452
8385 8175 5875
8386 6947 6555
8387 8410 7833
8388 8602 8470
8389 6420 5577
8390 3895 2336
8391 9556 8594
8392 4936 1371
8393 3722 3030
8394 4225 1822
8395 6408 9763
8396 5790 2031
8397 8488 5677
8398 4911 2526
8399 2875 2378
8400 7394 7565
8401 33   6397
8402 612  3647
8403 6061 4564
8404 8057 9622
8405 556  9078
8406 7791 4593
8407 6664 7929
8408 7292 9247
8409 7845 9189
8410 7515 9228
8411 6998 5619
8412 2126 3803
8413 7684 5443
8414 7792 8270
8415 7649 5246
8416 5102 4253
8417 424  4068
8418 995  2671
8419 5135 2125
8420 5103 1721
8421 4707 2784
8422 4012 2112
8423 1464 8581
8424 7748 5489
8425 8386 5037
8426 7737 7611
8427 388  8629
8428 288  3326
8429 9058 4858
8430 775  4259
8431 7765 9499
8432 8499 4036
8433 402  4849
8434 8426 9231
8435 1531 2215
8436 7390 7889
8437 9061 4181
8438 4124 1262
8439 517  8859
8440 8335 9353
8441 149  8455
8442 3428 3297
8443 7449 8406
8444 7196 8243
8445 6492 6303
8446 2249 9793
8447 8738 5823
8448 4759 2933
8449 6088 8368
8450 8020 9244
8451 9471 7629
8452 2007 8097
8453 9099 5200
8454 8857 3966
8455 5629 5140
8456 8451 5298
8457 7448 5539
8458 1624 2701
8459 8168 5863
8460 9617 4524
8461 646  8142
8462 7756 9346
8463 5670 7753
8464 8126 5359
8465 641  8470
8466 7765 8062
8467 5568 8810
8468 7906 9816
8469 7659 7858
8470 5306 3059
8471 4077 1963
8472 6961 5029
8473 4944 8511
8474 5492 2370
8475 7410 8740
8476 5633 2290
8477 261  9401
8478 7705 3355
8479 6335 4717
8480 8188 9755
8481 8056 7756
8482 8815 6323
8483 7757 7467
8484 1503 2726
8485 397  2159
8486 7454 8386
8487 7410 6801
8488 7945 5482
8489 7843 5170
8490 591  3453
8491 1069 8434
8492 7842 5059
8493 8224 4836
8494 759  8908
8495 9295 7835
8496 7501 8238
8497 797  8256
8498 1226 3599
8499 7528 3891
8500 732  9455
8501 7760 9785
8502 4788 3365
8503 7527 8213
8504 524  3968
8505 7571 9671
8506 5697 5211
8507 2313 2083
8508 6207 4751
8509 2052 3917
8510 7651 5821
8511 8176 8718
8512 1164 5015
8513 5390 1789
8514 7176 8558
8515 1617 9504
8516 545  3057
8517 2085 8941
8518 320  6992
8519 8775 5226
8520 7064 8225
8521 3797 2988
8522 7475 8363
8523 223  2923
8524 4010 5416
8525 7660 7156
8526 5229 3065
8527 826  4380
8528 3787 4343
8529 7969 5382
8530 751  2025
8531 7611 6230
8532 7914 8297
8533 2566 5358
8534 219  8878
8535 7723 9887
8536 8394 5519
8537 4630 2502
8538 5347 2640
8539 190  3294
8540 7554 9211
8541 383  2763
8542 2212 5514
8543 8202 9585
8544 7908 4882
8545 7029 5250
8546 6531 5675
8547 791  3081
8548 8414 9642
8549 7037 5048
8550 8016 5263
8551 492  8373
8552 626  8599
8553 3603 2312
8554 4973 2060
8555 8358 6315
8556 3537 2848
8557 8185 3789
8558 8155 7812
8559 909  3872
8560 800  8247
8561 4037 4168
8562 6677 4569
8563 5603 2690
8564 825  8676
8565 1079 8188
8566 8657 5226
8567 268  2771
8568 8449 5615
8569 4538 933 
8570 7993 9824
8571 6592 6947
8572 8800 5920
8573 8469 4949
8574 1029 8684
8575 4365 3045
8576 7935 7983
8577 457  3255
8578 60   8277
8579 8078 6700
8580 675  3049
8581 893  3992
8582 9004 5565
8583 536  1333
8584 7201 8149
8585 4104 3468
8586 8105 5192
8587 1080 3034
8588 515  8200
8589 7168 8017
8590 4637 2402
8591 8654 7822
8592 7900 5312
8593 1356 3850
8594 257  4126
8595 954  8705
8596 390  8575
8597 6053 8731
8598 7521 9438
8599 7782 9871
8600 7760 4108
8601 675  2341
8602 1047 4985
8603 8327 3599
8604 6702 5790
8605 8053 8386
8606 8297 4310
8607 2860 2291
8608 2326 2739
8609 8967 4892
8610 6813 6500
8611 8167 7541
8612 6856 5292
8613 7921 8052
8614 3948 3160
8615 7259 6477
8616 4287 3478
8617 7478 5148
8618 509  7002
8619 9071 8812
8620 164  8330
8621 7858 4535
8622 7601 8102
8623 4648 7596
8624 7567 4857
8625 1108 7265
8626 8298 8626
8627 8619 8972
8628 6876 7108
8629 8016 7077
8630 368  3528
8631 8070 9727
8632 1404 3995
8633 4820 2619
8634 1947 2205
8635 7314 5066
8636 1915 7130
8637 4742 2482
8638 7283 6832
8639 136  3201
8640 7716 6961
8641 8475 4147
8642 1434 8290
8643 7063 7317
8644 8091 4636
8645 8715 5005
8646 6810 7924
8647 590  3056
8648 7365 8370
8649 4795 3053
8650 437  9278
8651 6    3252
8652 7396 2775
8653 7572 9354
8654 298  3823
8655 771  8498
8656 7313 5676
8657 615  7659
8658 1080 8202
8659 1299 9086
8660 1976 3956
8661 5343 2153
8662 6494 7011
8663 7929 7418
8664 340  9436
8665 658  9011
8666 2944 2992
8667 6179 1702
8668 801  7901
8669 960  8247
8670 8763 4957
8671 8328 8196
8672 9475 4142
8673 488  9420
8674 8449 9882
8675 550  8572
8676 8741 5869
8677 5138 2458
8678 8286 5809
8679 5873 5272
8680 4887 2293
8681 7547 9521
8682 8065 5365
8683 8821 5693
8684 4530 3281
8685 8688 3963
8686 4020 809 
8687 171  8021
8688 8199 9398
8689 7898 9197
8690 7540 5329
8691 786  8362
8692 434  8727
8693 1338 7992
8694 8337 9235
8695 628  8633
8696 7475 7753
8697 1879 6408
8698 2964 2366
8699 9984 9671
8700 7206 7166
8701 7544 9903
8702 6960 4377
8703 5975 4269
8704 7082 8969
8705 4713 1288
8706 572  8887
8707 2331 9689
8708 3706 1035
8709 8405 8650
8710 6017 7047
8711 672  8474
8712 8575 5010
8713 7616 3406
8714 881  8926
8715 8408 6362
8716 3213 3312
8717 5402 4681
8718 8404 7367
8719 1471 9837
8720 7912 7975
8721 956  7674
8722 5034 1916
8723 866  3216
8724 7446 8450
8725 1158 3250
8726 2111 8424
8727 7847 4955
8728 9226 4518
8729 7339 4892
8730 7445 4599
8731 8442 9097
8732 163  8703
8733 8774 7671
8734 226  8943
8735 1181 9657
8736 8803 6426
8737 4695 2796
8738 4137 2360
8739 7392 8761
8740 1657 3045
8741 442  8349
8742 257  2158
8743 3173 4434
8744 4193 2801
8745 8052 5053
8746 1117 791 
8747 8540 8858
8748 1564 4805
8749 339  8700
8750 7351 7007
8751 7935 8231
8752 7283 6717
8753 7746 5567
8754 8523 5832
8755 4306 1819
8756 628  4075
8757 1134 7494
8758 8107 8438
8759 7890 9616
8760 7708 7259
8761 8763 5630
8762 99   4004
8763 4421 2851
8764 739  8290
8765 3046 1705
8766 7232 8949
8767 8438 9755
8768 108  9017
8769 7863 9026
8770 7401 4619
8771 7872 7107
8772 7895 9837
8773 7933 3525
8774 7262 7643
8775 8312 5011
8776 3922 2318
8777 5710 6866
8778 4727 2601
8779 7427 7199
8780 3342 2991
8781 3840 3401
8782 4083 1653
8783 187  8128
8784 5686 5283
8785 711  8725
8786 4532 2553
8787 6958 8298
8788 8561 4806
8789 639  8264
8790 174  3487
8791 8269 9584
8792 7858 8391
8793 3226 3019
8794 3790 3284
8795 6729 9369
8796 7986 5537
8797 331  9866
8798 7629 8184
8799 8047 9748
8800 6969 5752
8801 975  2529
8802 8231 8371
8803 9038 9391
8804 7175 8081
8805 7211 7640
8806 1271 8059
8807 7541 6257
8808 8945 5562
8809 7744 7581
8810 6087 7703
8811 9957 8478
8812 8196 9669
8813 3519 3236
8814 7756 8389
8815 5039 2862
8816 7766 9982
8817 4302 2902
8818 8663 7429
8819 3822 2469
8820 6791 8141
8821 4485 3090
8822 8088 7352
8823 35   9500
8824 5802 3126
8825 806  3598
8826 6888 5881
8827 6554 4975
8828 157  8253
8829 8724 7349
8830 908  2170
8831 289  8429
8832 7071 8147
8833 146  3389
8834 6509 8029
8835 6938 8305
8836 268  8989
8837 4781 1534
8838 624  9651
8839 4429 6379
8840 8287 8509
8841 4786 2732
8842 8463 9862
8843 7938 5932
8844 7739 5707
8845 2048 3293
8846 8588 9007
8847 7630 9438
8848 851  8516
8849 485  2733
8850 88   2917
8851 502  8206
8852 5496 3439
8853 7284 9585
8854 389  8734
8855 544  8225
8856 4886 788 
8857 516  3374
8858 8249 5421
8859 7213 8156
8860 8853 4869
8861 2030 2659
8862 805  7900
8863 7485 8252
8864 8112 8624
8865 5392 2768
8866 2949 3588
8867 780  8539
8868 7191 7345
8869 935  4954
8870 7736 8678
8871 8122 8297
8872 1034 8472
8873 124  4404
8874 5295 2099
8875 5665 8705
8876 981  2744
8877 7991 8985
8878 5721 8681
8879 219  8570
8880 9203 8187
8881 4239 2721
8882 7462 7715
8883 1311 4984
8884 7176 8753
8885 7745 8162
8886 3612 6352
8887 7077 8967
8888 1235 9028
8889 6547 6916
8890 4622 2061
8891 269  2791
8892 7860 5477
8893 56   2016
8894 3007 415 
8895 8550 4837
8896 4670 4205
8897 7068 5893
8898 4061 1992
8899 9131 5541
8900 7947 5192
8901 5632 8814
8902 6732 4700
8903 5635 8578
8904 4059 180 
8905 8248 4860
8906 8662 9807
8907 8458 7924
8908 1605 7650
8909 4721 2738
8910 6527 4742
8911 5160 8374
8912 7751 9394
8913 1381 7699
8914 6888 3380
8915 6588 4002
8916 5686 7848
8917 560  3759
8918 4543 2314
8919 7167 7019
8920 3613 2204
8921 4855 2501
8922 410  2394
8923 7359 5648
8924 7052 3743
8925 8766 7082
8926 8053 6559
8927 1584 6233
8928 8181 4966
8929 7943 5533
8930 5050 4473
8931 8878 7057
8932 4360 3245
8933 895  8816
8934 7381 7946
8935 5658 714 
8936 4867 2023
8937 6754 6725
8938 1043 9054
8939 8367 9553
8940 7974 8164
8941 8599 5054
8942 803  6476
8943 4112 1924
8944 8702 7286
8945 527  9020
8946 458  8178
8947 7972 9260
8948 3896 1824
8949 8624 6093
8950 388  8724
8951 7443 4862
8952 452  3456
8953 7219 3954
8954 4431 1822
8955 8736 6290
8956 7850 8566
8957 223  3712
8958 77   3306
8959 7371 3792
8960 8724 4761
8961 8756 8216
8962 6044 2999
8963 7653 5266
8964 6549 5864
8965 6153 7223
8966 8400 2721
8967 5038 2572
8968 7787 5536
8969 1494 7335
8970 6877 8089
8971 8745 6419
8972 8051 9257
8973 8152 8146
8974 9267 9363
8975 4644 1830
8976 8432 5577
8977 9100 6208
8978 8401 8298
8979 7483 7673
8980 7629 5659
8981 7462 9465
8982 8083 7577
8983 1835 7844
8984 2746 6932
8985 7754 6340
8986 578  8276
8987 4577 3567
8988 7461 6895
8989 7451 4776
8990 578  8391
8991 288  3478
8992 7206 4553
8993 5161 7776
8994 1960 9047
8995 867  5686
8996 5008 3490
8997 7956 5034
8998 9709 5980
8999 8242 5552
9000 1220 7481
9001 2028 8830
9002 9243 4805
9003 6533 6237
9004 9419 4839
9005 9188 9767
9006 545  8570
9007 1303 5014
9008 8033 6875
9009 6782 8189
9010 4058 2239
9011 5158 1878
9012 7289 8872
9013 52   2372
9014 7395 4687
9015 713  8110
9016 8230 3974
9017 4096 205 
9018 2845 3406
9019 9562 8917
9020 4279 3781
9021 4975 2456
9022 508  8587
9023 1174 9068
9024 832  8881
9025 3594 3566
9026 8469 7205
9027 5399 2683
9028 4601 2280
9029 4127 3082
9030 8    9038
9031 7966 7738
9032 8184 8968
9033 7191 7594
9034 8703 7470
9035 1193 9091
9036 3317 8663
9037 8157 8373
9038 4421 4114
9039 7097 7829
9040 5720 3446
9041 8187 9602
9042 4023 2309
9043 7138 9000
9044 8039 9368
9045 1046 8457
9046 5923 9267
9047 8908 9611
9048 7965 9582
9049 955  8712
9050 145  3472
9051 2316 8662
9052 358  3374
9053 6586 7241
9054 287  1655
9055 59   2344
9056 1833 8179
9057 1187 4241
9058 7673 7708
9059 7691 8333
9060 5449 2887
9061 7792 5606
9062 7577 7819
9063 7662 8115
9064 8593 6154
9065 9658 6178
9066 4416 2278
9067 7617 6181
9068 6383 8509
9069 6574 5699
9070 6092 7517
9071 1832 2960
9072 722  9261
9073 7846 5705
9074 826  8028
9075 7921 5401
9076 6094 9027
9077 8965 9761
9078 7434 7991
9079 7103 2581
9080 3931 2164
9081 8174 6736
9082 5628 4323
9083 4988 4226
9084 3790 2529
9085 8083 9593
9086 5918 7475
9087 7781 8898
9088 6754 7399
9089 7851 4721
9090 703  6493
9091 8719 6307
9092 9220 6788
9093 4469 2467
9094 216  2819
9095 7138 9987
9096 82   3701
9097 1909 8594
9098 7902 7384
9099 8279 7001
9100 8892 2724
9101 7946 9035
9102 7951 9568
9103 6041 3463
9104 4754 2343
9105 4085 1107
9106 8258 2806
9107 7493 7259
9108 8445 5380
9109 8891 5603
9110 1817 3721
9111 4726 2357
9112 7001 7550
9113 6670 7845
9114 4060 3677
9115 2887 5836
9116 937  2953
9117 9207 9902
9118 7422 8057
9119 8693 6419
9120 8018 9559
9121 4036 2666
9122 5514 3141
9123 7234 8048
9124 8912 8036
9125 7918 8141
9126 7646 8977
9127 5765 1876
9128 596  8521
9129 8346 8977
9130 7709 5807
9131 7906 9991
9132 872  8598
9133 8429 5796
9134 46   8409
9135 11   8770
9136 4653 1349
9137 7015 8697
9138 8245 8740
9139 4020 3036
9140 5099 501 
9141 8027 5736
9142 6639 8051
9143 540  8583
9144 8268 7797
9145 7612 5541
9146 5931 5415
9147 7368 9721
9148 2267 7480
9149 7535 6343
9150 8728 6743
9151 4221 2521
9152 7103 8030
9153 4141 2623
9154 9152 7446
9155 5311 3046
9156 5550 2218
9157 9576 5154
9158 4811 2507
9159 7690 9202
9160 901  2914
9161 1044 6651
9162 7835 6158
9163 8168 9313
9164 7175 5325
9165 231  9874
9166 541  8633
9167 1664 8510
9168 7804 9292
9169 7701 9432
9170 7756 8277
9171 6557 1650
9172 4803 2806
9173 6855 8062
9174 628  6345
9175 5380 4310
9176 7010 6702
9177 3037 4538
9178 8132 9419
9179 8102 5038
9180 8305 4658
9181 7913 6637
9182 8041 9498
9183 9147 4481
9184 4122 1179
9185 191  8316
9186 4123 3494
9187 8117 5406
9188 868  7994
9189 817  7074
9190 6737 4208
9191 4275 2324
9192 7147 8034
9193 509  8437
9194 9287 5923
9195 6994 7555
9196 8869 6058
9197 37   2822
9198 9407 6419
9199 924  3074
9200 8797 8140
9201 3911 1725
9202 7729 7055
9203 6392 51  
9204 6710 8153
9205 9488 5823
9206 8622 7045
9207 8081 7773
9208 6016 2296
9209 130  3198
9210 1352 8414
9211 7848 8786
9212 466  2802
9213 252  3090
9214 5462 3666
9215 4447 2772
9216 7330 8261
9217 740  3262
9218 6765 8544
9219 1292 769 
9220 4800 2254
9221 6221 2447
9222 7720 9376
9223 8538 6748
9224 2705 4213
9225 132  8419
9226 7992 5900
9227 9372 6668
9228 301  8298
9229 7948 9814
9230 605  2213
9231 7983 4635
9232 5    3583
9233 8570 5309
9234 5077 2231
9235 9377 8849
9236 7612 6211
9237 7937 9800
9238 125  4624
9239 4804 1775
9240 8771 8434
9241 1346 7958
9242 1261 3752
9243 6981 8802
9244 6091 9107
9245 1802 8489
9246 367  3761
9247 8233 8749
9248 8579 8761
9249 654  3013
9250 7837 9676
9251 8649 3806
9252 6897 8790
9253 674  4739
9254 6307 1043
9255 8450 9644
9256 8971 9938
9257 6688 6838
9258 608  3374
9259 6841 7865
9260 2255 4106
9261 379  7089
9262 8683 9781
9263 7852 3709
9264 5392 2131
9265 8933 7837
9266 7537 7429
9267 9177 9085
9268 510  6944
9269 3818 2323
9270 7728 6945
9271 8676 8375
9272 418  9048
9273 59   3401
9274 7672 8424
9275 660  3753
9276 5129 9170
9277 4170 3548
9278 7867 8131
9279 6251 9350
9280 672  5367
9281 8843 5127
9282 7917 5848
9283 5    8848
9284 4993 2532
9285 8371 5047
9286 7952 9843
9287 8983 9371
9288 8291 6085
9289 7074 6192
9290 4863 2450
9291 916  2452
9292 8275 9211
9293 210  9712
9294 161  3554
9295 8130 7815
9296 4320 3637
9297 7775 8371
9298 7568 6173
9299 2470 1088
9300 9347 6891
9301 7585 5605
9302 4894 2641
9303 7894 7785
9304 7785 5663
9305 5885 8516
9306 1563 7094
9307 955  9018
9308 6549 7732
9309 9325 4079
9310 7499 7881
9311 7280 8572
9312 9103 6507
9313 7648 8432
9314 404  9001
9315 647  9137
9316 70   3835
9317 2799 3059
9318 7356 7897
9319 5760 8507
9320 8017 8838
9321 2356 2516
9322 8712 7626
9323 4576 2695
9324 7457 9363
9325 314  4507
9326 6762 4185
9327 1701 8665
9328 685  8113
9329 6799 6109
9330 3812 4089
9331 4932 7766
9332 6235 5928
9333 273  8539
9334 6973 7761
9335 8731 6945
9336 8514 8575
9337 6394 6487
9338 8153 5292
9339 269  4178
9340 7749 7797
9341 7705 8349
9342 197  3281
9343 5014 3162
9344 4653 2810
9345 5049 2476
9346 924  3893
9347 7723 9627
9348 1614 5844
9349 8433 6075
9350 7665 7237
9351 4426 3208
9352 123  1729
9353 864  8596
9354 4371 1998
9355 753  3087
9356 7596 8181
9357 4107 4785
9358 8218 6651
9359 7835 7617
9360 213  8320
9361 7832 8763
9362 7608 9179
9363 7462 8224
9364 1474 9197
9365 9083 9316
9366 8470 5665
9367 7772 7448
9368 9784 5918
9369 2065 3979
9370 7781 5715
9371 8167 5125
9372 8176 5108
9373 3669 3345
9374 1486 9546
9375 7946 3915
9376 8992 7860
9377 8418 9279
9378 6765 3748
9379 7616 9607
9380 7621 9326
9381 8500 8883
9382 8498 4628
9383 5334 3299
9384 465  1512
9385 983  3102
9386 669  3026
9387 551  8058
9388 4370 2329
9389 6567 6043
9390 6404 8441
9391 7049 8420
9392 4799 1209
9393 305  9229
9394 2868 3314
9395 1752 9193
9396 959  9449
9397 5071 2329
9398 472  8293
9399 7031 7604
9400 8542 7321
9401 2167 7558
9402 7757 9738
9403 7734 8639
9404 8218 5747
9405 4796 2488
9406 9111 3998
9407 75   8337
9408 6721 5014
9409 8296 6828
9410 7941 5553
9411 7820 8154
9412 784  6944
9413 7376 7276
9414 265  3181
9415 6952 6040
9416 7681 6188
9417 8991 7653
9418 5075 3025
9419 7593 9417
9420 1395 6284
9421 9078 5512
9422 7834 7153
9423 815  3858
9424 7405 8744
9425 5498 6803
9426 4414 2968
9427 8805 8611
9428 8018 4569
9429 7224 9094
9430 468  8850
9431 1142 8161
9432 6251 6476
9433 8295 7715
9434 8412 5264
9435 876  3597
9436 7558 7942
9437 8883 8305
9438 8778 9235
9439 7609 7993
9440 8034 9059
9441 9173 4330
9442 459  9166
9443 7360 9700
9444 8828 8883
9445 131  4293
9446 529  8786
9447 4653 684 
9448 6586 5006
9449 7863 8894
9450 2968 9916
9451 4780 4602
9452 9151 7059
9453 7625 4700
9454 1579 9111
9455 382  8741
9456 3803 3208
9457 8062 7347
9458 7725 9824
9459 7651 8069
9460 563  9320
9461 7753 8251
9462 5909 8047
9463 7131 7988
9464 7069 9118
9465 699  8136
9466 6071 7003
9467 8842 3779
9468 3836 1651
9469 4263 3148
9470 7138 4343
9471 3526 5413
9472 7918 9750
9473 4622 1628
9474 7032 4829
9475 4453 3179
9476 5455 6915
9477 4332 2072
9478 4460 2149
9479 842  8046
9480 236  8798
9481 4602 3402
9482 588  2090
9483 695  4263
9484 8201 8473
9485 1139 8061
9486 7460 8328
9487 3436 3437
9488 7439 7540
9489 1175 8668
9490 7214 8315
9491 9859 8617
9492 7553 5094
9493 8391 8765
9494 8553 7686
9495 7676 4947
9496 6143 3777
9497 8181 9241
9498 8268 4942
9499 7472 4514
9500 4052 2378
9501 5614 1292
9502 8324 9625
9503 7467 7534
9504 616  8679
9505 8159 4596
9506 6143 4771
9507 3392 2793
9508 4207 2576
9509 6165 4531
9510 8084 9879
9511 6932 9624
9512 9187 7786
9513 7625 5686
9514 9046 3600
9515 9406 7368
9516 4315 3399
9517 717  1543
9518 4467 2613
9519 7031 9171
9520 8762 8174
9521 7546 6036
9522 5785 2463
9523 8131 5824
9524 5452 716 
9525 167  7812
9526 4634 523 
9527 7709 4984
9528 733  8675
9529 7352 8897
9530 6327 4410
9531 833  2560
9532 6607 7493
9533 4272 2092
9534 7652 9372
9535 4849 3082
9536 6816 8974
9537 2090 5102
9538 7588 5782
9539 3748 4277
9540 4651 2553
9541 246  3434
9542 2711 9625
9543 6475 7620
9544 6399 6738
9545 8649 5752
9546 7950 8450
9547 385  7870
9548 7240 9071
9549 4657 2570
9550 4427 2492
9551 1669 1625
9552 7075 6620
9553 7824 9964
9554 9091 4879
9555 5966 6143
9556 8302 8016
9557 169  2517
9558 636  7990
9559 6514 7738
9560 9496 5720
9561 2660 831 
9562 8373 8652
9563 1088 3164
9564 7581 9693
9565 4424 1804
9566 7624 8800
9567 6843 2727
9568 131  7399
9569 11   3180
9570 8387 9435
9571 576  8885
9572 4910 2463
9573 4909 2117
9574 7686 6243
9575 4402 3165
9576 7558 9531
9577 6455 7864
9578 134  2857
9579 7558 5161
9580 7259 7925
9581 8132 7163
9582 8410 5256
9583 225  5203
9584 3760 1946
9585 4964 1430
9586 2340 8760
9587 7243 8632
9588 3605 2354
9589 7840 6626
9590 5260 3554
9591 6734 7039
9592 8163 5101
9593 6388 7808
9594 8238 9952
9595 748  3952
9596 429  9075
9597 4558 285 
9598 307  5682
9599 7618 8166
9600 4937 1344
9601 1084 4734
9602 5115 3252
9603 254  3701
9604 7609 7206
9605 8032 7239
9606 4739 4178
9607 6701 4519
9608 8096 5317
9609 1007 8477
9610 8130 8591
9611 1043 8725
9612 4742 110 
9613 1139 6835
9614 1761 7607
9615 588  4198
9616 8416 7340
9617 8323 7848
9618 8327 5323
9619 4695 2823
9620 4854 2356
9621 7119 8502
9622 321  8248
9623 4490 2861
9624 1382 2623
9625 5156 2426
9626 1940 1551
9627 8478 5231
9628 262  8296
9629 3907 4012
9630 39   4877
9631 8425 9929
9632 8495 4840
9633 7817 7731
9634 7871 4800
9635 7760 8076
9636 8070 5843
9637 7379 5129
9638 58   9102
9639 759  8764
9640 7186 4046
9641 821  8585
9642 7589 9498
9643 4474 2564
9644 441  3252
9645 3787 2613
9646 7897 9481
9647 6422 9091
9648 7570 5568
9649 6483 7878
9650 556  9017
9651 6287 7147
9652 8459 9019
9653 323  2045
9654 985  4700
9655 4717 1942
9656 749  3244
9657 7819 8081
9658 910  3600
9659 7963 5465
9660 8422 5695
9661 7616 9417
9662 7965 5668
9663 7214 8627
9664 8003 5001
9665 1736 8699
9666 7326 9016
9667 7030 8213
9668 15   2607
9669 3831 8516
9670 4775 2837
9671 3603 2812
9672 6985 8628
9673 9280 4561
9674 3732 2895
9675 3157 2951
9676 3984 3661
9677 7307 9040
9678 4612 8604
9679 7592 9440
9680 103  7911
9681 4063 3444
9682 6369 3530
9683 5073 16  
9684 678  7418
9685 8338 6981
9686 7864 8613
9687 4223 2608
9688 829  2571
9689 780  4402
9690 6643 7916
9691 7673 8515
9692 7034 8473
9693 852  3792
9694 8858 5423
9695 4844 3023
9696 7910 9501
9697 7433 7669
9698 813  8228
9699 5054 3586
9700 7651 8330
9701 8757 9086
9702 3748 2489
9703 7517 9549
9704 9670 6810
9705 807  2557
9706 7409 4836
9707 106  3304
9708 5587 1318
9709 7554 9970
9710 8083 8294
9711 5657 5089
9712 142  9614
9713 118  3083
9714 278  4203
9715 150  3722
9716 8241 7141
9717 8459 6058
9718 1252 2602
9719 7110 5799
9720 1016 8861
9721 415  2802
9722 8574 5550
9723 7963 5369
9724 9060 4497
9725 4383 2321
9726 4038 1944
9727 6022 2074
9728 2039 9715
9729 7067 4308
9730 9417 6772
9731 8107 6527
9732 1060 8868
9733 8738 8683
9734 8471 2953
9735 387  4703
9736 6467 9478
9737 8283 9822
9738 1036 1392
9739 405  8593
9740 3648 1704
9741 1298 2315
9742 618  8802
9743 8711 5044
9744 8388 9149
9745 7695 9201
9746 1548 7599
9747 3935 2246
9748 3948 2811
9749 7494 4159
9750 7935 6127
9751 7483 9779
9752 9320 8126
9753 8172 3122
9754 487  8107
9755 7017 6552
9756 505  7779
9757 8133 9444
9758 1464 3773
9759 4205 2659
9760 7314 9250
9761 3625 3222
9762 352  2285
9763 7617 8005
9764 449  9766
9765 4721 857 
9766 8323 7430
9767 8492 9803
9768 4238 2678
9769 7331 6296
9770 2884 1927
9771 8192 6067
9772 4706 3678
9773 2698 7443
9774 6889 8201
9775 6891 8887
9776 7265 8712
9777 6457 5691
9778 7030 8672
9779 8963 4731
9780 100  3389
9781 8008 4407
9782 3473 2396
9783 1645 1390
9784 9263 8451
9785 5191 2310
9786 405  2976
9787 8934 8639
9788 5187 2539
9789 982  3726
9790 8782 6906
9791 1752 2636
9792 330  8448
9793 7747 9658
9794 7198 7730
9795 7804 2340
9796 6515 3132
9797 8054 4408
9798 1027 8909
9799 7906 9471
9800 7755 5376
9801 713  3165
9802 697  4416
9803 7647 6843
9804 8312 9442
9805 6830 8341
9806 1080 3212
9807 70   8763
9808 6940 9517
9809 8378 8559
9810 215  5779
9811 7095 7857
9812 7327 8910
9813 272  8631
9814 7813 8857
9815 3489 1609
9816 8218 8337
9817 6767 9607
9818 5374 6067
9819 3202 1198
9820 7501 7967
9821 8178 9047
9822 7493 7658
9823 3927 2236
9824 1770 9616
9825 6356 4853
9826 4714 2375
9827 9255 9458
9828 9147 5008
9829 7661 7345
9830 8835 9277
9831 4053 2822
9832 7807 7459
9833 2705 7323
9834 7232 7522
9835 8364 8707
9836 4746 3113
9837 359  2775
9838 7134 4730
9839 8385 2841
9840 406  2316
9841 8885 5480
9842 1131 7734
9843 1148 7394
9844 7628 8004
9845 7872 2494
9846 8364 6089
9847 845  3765
9848 1583 4248
9849 7017 7881
9850 1034 8434
9851 3283 2021
9852 8181 9636
9853 7772 5423
9854 4177 4374
9855 7986 4833
9856 7662 9469
9857 4365 2572
9858 960  9824
9859 756  8793
9860 1199 8439
9861 5136 3466
9862 1151 7090
9863 4634 2167
9864 7129 4261
9865 4914 2796
9866 7502 7634
9867 8230 5963
9868 7441 8021
9869 8984 8226
9870 8655 8357
9871 7679 5386
9872 7646 7981
9873 209  4518
9874 9050 6324
9875 6487 3900
9876 409  9036
9877 599  8579
9878 8660 7471
9879 7361 8159
9880 3257 2750
9881 3627 3240
9882 7461 4314
9883 3135 2146
9884 7844 9311
9885 347  8374
9886 8990 5094
9887 7328 7990
9888 6896 5599
9889 8183 6006
9890 5597 5375
9891 8500 7265
9892 380  8246
9893 7189 9507
9894 6360 9966
9895 256  8550
9896 1877 746 
9897 624  3246
9898 8027 6202
9899 1008 8528
9900 4568 2973
9901 3618 2322
9902 4730 2586
9903 8253 8201
9904 9375 8142
9905 8516 9549
9906 4772 1218
9907 414  3352
9908 7857 4937
9909 7373 9827
9910 22   3217
9911 5325 9882
9912 851  8408
9913 6787 7388
9914 9795 8102
9915 7564 7625
9916 7771 9761
9917 8079 3543
9918 93   7913
9919 7394 5813
9920 7679 8602
9921 7736 8185
9922 7495 4464
9923 8613 6560
9924 7178 6045
9925 8001 5024
9926 409  2646
9927 7614 7854
9928 8710 7009
9929 9229 4795
9930 5934 2572
9931 357  2329
9932 8277 7691
9933 7418 7626
9934 5301 2193
9935 7828 4911
9936 5462 5376
9937 7629 4225
9938 4578 2504
9939 4451 2090
9940 898  3304
9941 390  8821
9942 8149 8323
9943 871  8548
9944 8325 6063
9945 4288 2781
9946 8164 7996
9947 8142 6532
9948 4508 3305
9949 7673 8154
9950 8119 5091
9951 8799 4450
9952 6067 9952
9953 7460 8286
9954 3969 2114
9955 3544 3209
9956 3196 3204
9957 7613 7720
9958 4811 2537
9959 6297 5863
9960 5930 3186
9961 7580 5288
9962 7920 7867
9963 5113 2177
9964 661  2918
9965 3687 2551
9966 7025 5714
9967 9160 9134
9968 5371 3443
9969 639  6466
9970 130  8559
9971 6814 5906
9972 3832 2601
9973 7979 6437
9974 8179 9264
9975 9545 7689
9976 8144 5275
9977 428  9759
9978 1444 4608
9979 8090 9550
9980 7559 9071
9981 7483 8056
9982 9103 9982
9983 7158 9530
9984 1523 8987
9985 8422 5310
9986 6157 3400
9987 8257 7484
9988 7412 9587
9989 7603 9780
9990 1030 8292
9991 8311 6078
9992 608  2874
9993 4170 6193
9994 5132 2886
9995 9606 4192
9996 8262 6221
9997 7456 7807
9998 6108 2215
9999 816  8557
10000 6862 7624
10001 1134 9181
DEMAND_SECTION
1    0   
2    10  
3    1   
4    1   
5    2   
6    2   
7    3   
8    2   
9    5   
10   7   
11   10  
12   3   
13   1   
14   8   
15   3   
16   9   
17   9   
18   3   
19   10  
20   10  
21   7   
22   2   
23   4   
24   9   
25   5   
26   4   
27   3   
28   2   
29   3   
30   1   
31   4   
32   3   
33   1   
34   3   
35   10  
36   3   
37   7   
38   5   
39   7   
40   1   
41   6   
42   10  
43   9   
44   1   
45   6   
46   10  
47   6   
48   2   
49   5   
50   6   
51   7   
52   1   
53   10  
54   3   
55   3   
56   7   
57   8   
58   10  
59   4   
60   6   
61   4   
62   7   
63   5   
64   6   
65   4   
66   6   
67   8   
68   10  
69   9   
70   6   
71   10  
72   6   
73   8   
74   3   
75   5   
76   8   
77   5   
78   1   
79   6   
80   1   
81   3   
82   6   
83   6   
84   6   
85   2   
86   9   
87   3   
88   4   
89   5   
90   2   
91   2   
92   1   
93   5   
94   6   
95   2   
96   8   
97   7   
98   3   
99   4   
100  5   
101  8   
102  3   
103  1   
104  6   
105  7   
106  9   
107  3   
108  7   
109  4   
110  4   
111  8   
112  3   
113  8   
114  9   
115  1   
116  5   
117  6   
118  9   
119  10  
120  3   
121  5   
122  3   
123  1   
124  6   
125  7   
126  2   
127  4   
128  3   
129  1   
130  5   
131  9   
132  3   
133  10  
134  6   
135  4   
136  4   
137  7   
138  6   
139  8   
140  5   
141  9   
142  3   
143  4   
144  7   
145  4   
146  7   
147  2   
148  8   
149  4   
150  7   
151  3   
152  7   
153  10  
154  9   
155  10  
156  10  
157  8   
158  7   
159  10  
160  8   
161  7   
162  5   
163  1   
164  10  
165  2   
166  6   
167  4   
168  10  
169  5   
170  1   
171  4   
172  8   
173  7   
174  7   
175  9   
176  3   
177  5   
178  4   
179  5   
180  5   
181  3   
182  6   
183  1   
184  4   
185  6   
186  10  
187  5   
188  10  
189  6   
190  6   
191  7   
192  9   
193  10  
194  4   
195  7   
196  4   
197  7   
198  2   
199  8   
200  10  
201  5   
202  9   
203  6   
204  9   
205  1   
206  2   
207  3   
208  8   
209  8   
210  10  
211  9   
212  3   
213  8   
214  4   
215  10  
216  3   
217  2   
218  3   
219  8   
220  7   
221  7   
222  1   
223  5   
224  6   
225  4   
226  10  
227  3   
228  2   
229  1   
230  9   
231  3   
232  5   
233  8   
234  8   
235  5   
236  3   
237  1   
238  2   
239  5   
240  10  
241  6   
242  8   
243  8   
244  5   
245  6   
246  2   
247  1   
248  3   
249  9   
250  5   
251  8   
252  1   
253  7   
254  6   
255  4   
256  4   
257  6   
258  6   
259  7   
260  2   
261  1   
262  5   
263  1   
264  6   
265  7   
266  6   
267  2   
268  4   
269  10  
270  8   
271  10  
272  5   
273  5   
274  1   
275  5   
276  2   
277  7   
278  2   
279  9   
280  8   
281  4   
282  3   
283  3   
284  6   
285  6   
286  8   
287  7   
288  10  
289  4   
290  3   
291  5   
292  9   
293  7   
294  2   
295  5   
296  2   
297  1   
298  3   
299  4   
300  3   
301  3   
302  6   
303  5   
304  10  
305  10  
306  6   
307  4   
308  6   
309  6   
310  2   
311  8   
312  7   
313  2   
314  1   
315  5   
316  5   
317  3   
318  10  
319  4   
320  9   
321  5   
322  10  
323  5   
324  6   
325  8   
326  9   
327  2   
328  3   
329  8   
330  10  
331  1   
332  9   
333  5   
334  4   
335  8   
336  9   
337  4   
338  4   
339  9   
340  5   
341  8   
342  10  
343  10  
344  5   
345  8   
346  8   
347  8   
348  4   
349  1   
350  5   
351  1   
352  10  
353  6   
354  1   
355  1   
356  3   
357  9   
358  4   
359  6   
360  8   
361  1   
362  10  
363  2   
364  3   
365  10  
366  7   
367  8   
368  3   
369  9   
370  7   
371  8   
372  4   
373  2   
374  10  
375  4   
376  5   
377  7   
378  9   
379  7   
380  9   
381  7   
382  3   
383  10  
384  5   
385  8   
386  8   
387  8   
388  10  
389  2   
390  6   
391  7   
392  4   
393  7   
394  8   
395  10  
396  8   
397  2   
398  2   
399  7   
400  5   
401  6   
402  10  
403  2   
404  1   
405  6   
406  3   
407  6   
408  5   
409  5   
410  2   
411  6   
412  6   
413  5   
414  10  
415  2   
416  7   
417  6   
418  4   
419  7   
420  2   
421  4   
422  6   
423  3   
424  4   
425  4   
426  1   
427  4   
428  9   
429  6   
430  5   
431  5   
432  8   
433  7   
434  6   
435  4   
436  10  
437  6   
438  8   
439  3   
440  4   
441  6   
442  5   
443  8   
444  5   
445  7   
446  4   
447  2   
448  10  
449  1   
450  2   
451  10  
452  1   
453  1   
454  8   
455  5   
456  6   
457  6   
458  2   
459  8   
460  3   
461  1   
462  6   
463  9   
464  3   
465  10  
466  8   
467  5   
468  6   
469  3   
470  7   
471  9   
472  10  
473  9   
474  7   
475  8   
476  3   
477  2   
478  10  
479  8   
480  7   
481  10  
482  7   
483  5   
484  5   
485  10  
486  4   
487  2   
488  8   
489  8   
490  1   
491  3   
492  6   
493  7   
494  6   
495  7   
496  3   
497  5   
498  2   
499  5   
500  9   
501  1   
502  8   
503  3   
504  7   
505  2   
506  8   
507  3   
508  4   
509  1   
510  9   
511  6   
512  4   
513  5   
514  5   
515  10  
516  8   
517  9   
518  3   
519  10  
520  10  
521  3   
522  1   
523  3   
524  10  
525  1   
526  2   
527  3   
528  5   
529  3   
530  5   
531  5   
532  2   
533  10  
534  3   
535  3   
536  8   
537  9   
538  10  
539  4   
540  2   
541  1   
542  7   
543  2   
544  10  
545  5   
546  8   
547  6   
548  3   
549  7   
550  3   
551  5   
552  4   
553  8   
554  10  
555  8   
556  4   
557  9   
558  2   
559  5   
560  5   
561  1   
562  5   
563  4   
564  1   
565  9   
566  5   
567  9   
568  6   
569  9   
570  8   
571  10  
572  1   
573  3   
574  5   
575  8   
576  3   
577  7   
578  10  
579  9   
580  10  
581  9   
582  7   
583  3   
584  5   
585  7   
586  5   
587  7   
588  8   
589  6   
590  5   
591  3   
592  8   
593  6   
594  8   
595  6   
596  3   
597  1   
598  3   
599  4   
600  1   
601  7   
602  4   
603  8   
604  5   
605  1   
606  6   
607  8   
608  8   
609  1   
610  4   
611  3   
612  8   
613  6   
614  1   
615  8   
616  5   
617  3   
618  4   
619  8   
620  8   
621  10  
622  3   
623  3   
624  6   
625  1   
626  9   
627  2   
628  6   
629  9   
630  4   
631  6   
632  9   
633  3   
634  10  
635  9   
636  6   
637  8   
638  9   
639  1   
640  3   
641  10  
642  8   
643  7   
644  5   
645  8   
646  10  
647  9   
648  10  
649  8   
650  1   
651  9   
652  10  
653  5   
654  3   
655  2   
656  2   
657  5   
658  6   
659  8   
660  1   
661  8   
662  2   
663  5   
664  4   
665  8   
666  8   
667  8   
668  2   
669  7   
670  7   
671  3   
672  6   
673  4   
674  4   
675  1   
676  7   
677  4   
678  5   
679  9   
680  9   
681  4   
682  4   
683  6   
684  6   
685  4   
686  4   
687  6   
688  5   
689  1   
690  7   
691  7   
692  5   
693  4   
694  3   
695  4   
696  3   
697  6   
698  4   
699  5   
700  9   
701  5   
702  2   
703  7   
704  8   
705  4   
706  6   
707  1   
708  5   
709  2   
710  5   
711  9   
712  7   
713  6   
714  5   
715  4   
716  5   
717  10  
718  9   
719  1   
720  10  
721  9   
722  6   
723  8   
724  3   
725  6   
726  5   
727  4   
728  2   
729  7   
730  4   
731  9   
732  7   
733  9   
734  3   
735  6   
736  5   
737  1   
738  5   
739  7   
740  5   
741  2   
742  5   
743  4   
744  6   
745  1   
746  2   
747  7   
748  9   
749  2   
750  5   
751  5   
752  9   
753  8   
754  1   
755  5   
756  8   
757  6   
758  10  
759  5   
760  5   
761  6   
762  7   
763  5   
764  5   
765  8   
766  3   
767  3   
768  4   
769  8   
770  6   
771  7   
772  3   
773  3   
774  8   
775  6   
776  5   
777  9   
778  2   
779  6   
780  8   
781  6   
782  3   
783  3   
784  6   
785  9   
786  4   
787  6   
788  5   
789  8   
790  1   
791  4   
792  10  
793  10  
794  3   
795  2   
796  1   
797  4   
798  5   
799  10  
800  1   
801  5   
802  10  
803  1   
804  1   
805  6   
806  2   
807  3   
808  1   
809  1   
810  7   
811  3   
812  7   
813  2   
814  9   
815  4   
816  10  
817  7   
818  3   
819  7   
820  5   
821  5   
822  1   
823  8   
824  2   
825  1   
826  7   
827  2   
828  6   
829  8   
830  6   
831  1   
832  4   
833  10  
834  4   
835  4   
836  9   
837  1   
838  1   
839  4   
840  7   
841  1   
842  6   
843  10  
844  8   
845  1   
846  2   
847  6   
848  7   
849  1   
850  1   
851  1   
852  7   
853  3   
854  3   
855  7   
856  3   
857  1   
858  7   
859  4   
860  3   
861  4   
862  10  
863  10  
864  5   
865  8   
866  5   
867  7   
868  2   
869  3   
870  3   
871  10  
872  9   
873  4   
874  6   
875  8   
876  2   
877  4   
878  4   
879  6   
880  9   
881  1   
882  2   
883  10  
884  6   
885  3   
886  5   
887  6   
888  3   
889  3   
890  8   
891  4   
892  5   
893  4   
894  10  
895  6   
896  6   
897  8   
898  7   
899  5   
900  7   
901  3   
902  7   
903  1   
904  6   
905  3   
906  6   
907  1   
908  6   
909  5   
910  6   
911  5   
912  8   
913  10  
914  5   
915  5   
916  10  
917  9   
918  1   
919  1   
920  7   
921  1   
922  2   
923  8   
924  5   
925  1   
926  9   
927  5   
928  4   
929  3   
930  8   
931  10  
932  6   
933  10  
934  7   
935  7   
936  5   
937  2   
938  10  
939  3   
940  8   
941  3   
942  1   
943  4   
944  5   
945  1   
946  4   
947  4   
948  9   
949  10  
950  2   
951  10  
952  9   
953  3   
954  9   
955  5   
956  9   
957  8   
958  4   
959  5   
960  10  
961  1   
962  1   
963  3   
964  9   
965  10  
966  5   
967  5   
968  5   
969  5   
970  4   
971  8   
972  2   
973  5   
974  6   
975  5   
976  10  
977  7   
978  2   
979  10  
980  5   
981  3   
982  2   
983  3   
984  8   
985  5   
986  3   
987  6   
988  3   
989  9   
990  10  
991  5   
992  2   
993  3   
994  8   
995  10  
996  4   
997  7   
998  8   
999  8   
1000 3   
1001 1   
1002 6   
1003 4   
1004 7   
1005 6   
1006 9   
1007 6   
1008 4   
1009 1   
1010 1   
1011 4   
1012 2   
1013 4   
1014 1   
1015 1   
1016 6   
1017 9   
1018 6   
1019 1   
1020 3   
1021 10  
1022 3   
1023 3   
1024 1   
1025 10  
1026 7   
1027 1   
1028 2   
1029 6   
1030 10  
1031 1   
1032 8   
1033 3   
1034 6   
1035 3   
1036 1   
1037 1   
1038 4   
1039 1   
1040 3   
1041 1   
1042 8   
1043 4   
1044 8   
1045 8   
1046 5   
1047 8   
1048 10  
1049 3   
1050 4   
1051 1   
1052 2   
1053 4   
1054 6   
1055 8   
1056 8   
1057 10  
1058 5   
1059 4   
1060 7   
1061 9   
1062 8   
1063 4   
1064 9   
1065 5   
1066 10  
1067 1   
1068 8   
1069 9   
1070 2   
1071 1   
1072 3   
1073 10  
1074 9   
1075 2   
1076 9   
1077 2   
1078 2   
1079 10  
1080 2   
1081 4   
1082 5   
1083 6   
1084 6   
1085 2   
1086 7   
1087 9   
1088 6   
1089 4   
1090 5   
1091 2   
1092 6   
1093 10  
1094 4   
1095 1   
1096 3   
1097 2   
1098 3   
1099 2   
1100 10  
1101 1   
1102 3   
1103 8   
1104 6   
1105 1   
1106 5   
1107 3   
1108 1   
1109 5   
1110 2   
1111 1   
1112 3   
1113 10  
1114 10  
1115 3   
1116 8   
1117 4   
1118 5   
1119 6   
1120 4   
1121 3   
1122 10  
1123 4   
1124 5   
1125 7   
1126 2   
1127 8   
1128 10  
1129 5   
1130 5   
1131 4   
1132 6   
1133 8   
1134 2   
1135 9   
1136 8   
1137 9   
1138 9   
1139 6   
1140 4   
1141 10  
1142 3   
1143 7   
1144 5   
1145 6   
1146 4   
1147 5   
1148 8   
1149 4   
1150 3   
1151 7   
1152 4   
1153 1   
1154 10  
1155 2   
1156 2   
1157 5   
1158 7   
1159 2   
1160 2   
1161 3   
1162 4   
1163 1   
1164 2   
1165 9   
1166 5   
1167 3   
1168 3   
1169 8   
1170 7   
1171 10  
1172 5   
1173 4   
1174 9   
1175 7   
1176 6   
1177 5   
1178 4   
1179 8   
1180 2   
1181 6   
1182 10  
1183 6   
1184 7   
1185 5   
1186 8   
1187 8   
1188 7   
1189 6   
1190 7   
1191 8   
1192 5   
1193 5   
1194 10  
1195 9   
1196 10  
1197 9   
1198 8   
1199 1   
1200 10  
1201 1   
1202 6   
1203 6   
1204 1   
1205 5   
1206 8   
1207 8   
1208 4   
1209 2   
1210 9   
1211 2   
1212 4   
1213 3   
1214 2   
1215 5   
1216 3   
1217 1   
1218 8   
1219 6   
1220 5   
1221 9   
1222 3   
1223 1   
1224 10  
1225 1   
1226 5   
1227 7   
1228 4   
1229 2   
1230 10  
1231 10  
1232 2   
1233 10  
1234 4   
1235 1   
1236 5   
1237 6   
1238 3   
1239 10  
1240 5   
1241 7   
1242 1   
1243 2   
1244 4   
1245 9   
1246 1   
1247 5   
1248 8   
1249 4   
1250 3   
1251 7   
1252 3   
1253 8   
1254 9   
1255 2   
1256 7   
1257 4   
1258 2   
1259 9   
1260 1   
1261 8   
1262 10  
1263 10  
1264 4   
1265 9   
1266 10  
1267 7   
1268 2   
1269 2   
1270 8   
1271 6   
1272 1   
1273 8   
1274 3   
1275 2   
1276 1   
1277 2   
1278 1   
1279 1   
1280 4   
1281 10  
1282 2   
1283 10  
1284 1   
1285 2   
1286 3   
1287 1   
1288 4   
1289 10  
1290 6   
1291 8   
1292 5   
1293 2   
1294 7   
1295 6   
1296 4   
1297 7   
1298 5   
1299 5   
1300 1   
1301 5   
1302 3   
1303 2   
1304 5   
1305 8   
1306 8   
1307 4   
1308 4   
1309 8   
1310 9   
1311 1   
1312 1   
1313 1   
1314 1   
1315 2   
1316 7   
1317 3   
1318 5   
1319 2   
1320 8   
1321 4   
1322 3   
1323 4   
1324 10  
1325 10  
1326 1   
1327 4   
1328 5   
1329 8   
1330 8   
1331 6   
1332 4   
1333 9   
1334 7   
1335 4   
1336 6   
1337 1   
1338 10  
1339 2   
1340 4   
1341 8   
1342 7   
1343 9   
1344 9   
1345 5   
1346 1   
1347 1   
1348 8   
1349 6   
1350 4   
1351 6   
1352 7   
1353 6   
1354 7   
1355 2   
1356 9   
1357 1   
1358 6   
1359 2   
1360 1   
1361 9   
1362 2   
1363 2   
1364 4   
1365 10  
1366 3   
1367 6   
1368 2   
1369 9   
1370 3   
1371 4   
1372 8   
1373 4   
1374 2   
1375 9   
1376 1   
1377 6   
1378 6   
1379 3   
1380 3   
1381 9   
1382 3   
1383 7   
1384 7   
1385 10  
1386 3   
1387 6   
1388 2   
1389 4   
1390 2   
1391 4   
1392 2   
1393 5   
1394 8   
1395 9   
1396 10  
1397 6   
1398 7   
1399 1   
1400 2   
1401 10  
1402 5   
1403 9   
1404 9   
1405 9   
1406 10  
1407 8   
1408 9   
1409 4   
1410 4   
1411 7   
1412 7   
1413 4   
1414 2   
1415 5   
1416 3   
1417 1   
1418 2   
1419 1   
1420 10  
1421 3   
1422 8   
1423 7   
1424 7   
1425 7   
1426 5   
1427 10  
1428 8   
1429 9   
1430 9   
1431 6   
1432 9   
1433 1   
1434 1   
1435 1   
1436 5   
1437 4   
1438 7   
1439 10  
1440 1   
1441 10  
1442 4   
1443 9   
1444 5   
1445 1   
1446 1   
1447 4   
1448 6   
1449 7   
1450 8   
1451 8   
1452 5   
1453 8   
1454 3   
1455 6   
1456 10  
1457 10  
1458 9   
1459 3   
1460 1   
1461 8   
1462 1   
1463 1   
1464 6   
1465 8   
1466 1   
1467 6   
1468 1   
1469 9   
1470 1   
1471 8   
1472 1   
1473 5   
1474 9   
1475 1   
1476 5   
1477 10  
1478 6   
1479 6   
1480 9   
1481 1   
1482 9   
1483 2   
1484 10  
1485 3   
1486 10  
1487 5   
1488 7   
1489 9   
1490 7   
1491 1   
1492 10  
1493 6   
1494 7   
1495 10  
1496 10  
1497 2   
1498 4   
1499 9   
1500 6   
1501 6   
1502 10  
1503 1   
1504 2   
1505 1   
1506 6   
1507 2   
1508 1   
1509 7   
1510 6   
1511 7   
1512 2   
1513 7   
1514 3   
1515 2   
1516 3   
1517 8   
1518 8   
1519 8   
1520 4   
1521 7   
1522 3   
1523 8   
1524 3   
1525 6   
1526 10  
1527 4   
1528 7   
1529 4   
1530 5   
1531 10  
1532 7   
1533 8   
1534 5   
1535 7   
1536 1   
1537 6   
1538 10  
1539 7   
1540 7   
1541 3   
1542 4   
1543 10  
1544 2   
1545 6   
1546 2   
1547 10  
1548 4   
1549 6   
1550 3   
1551 9   
1552 7   
1553 1   
1554 3   
1555 2   
1556 10  
1557 4   
1558 2   
1559 8   
1560 6   
1561 6   
1562 9   
1563 9   
1564 1   
1565 5   
1566 3   
1567 8   
1568 6   
1569 3   
1570 3   
1571 6   
1572 1   
1573 1   
1574 1   
1575 10  
1576 7   
1577 7   
1578 1   
1579 5   
1580 8   
1581 6   
1582 9   
1583 6   
1584 6   
1585 6   
1586 3   
1587 6   
1588 10  
1589 7   
1590 1   
1591 1   
1592 2   
1593 9   
1594 3   
1595 1   
1596 6   
1597 6   
1598 10  
1599 10  
1600 1   
1601 10  
1602 8   
1603 4   
1604 5   
1605 1   
1606 3   
1607 2   
1608 6   
1609 1   
1610 4   
1611 10  
1612 3   
1613 1   
1614 1   
1615 3   
1616 4   
1617 6   
1618 2   
1619 10  
1620 6   
1621 5   
1622 1   
1623 10  
1624 3   
1625 5   
1626 6   
1627 6   
1628 2   
1629 2   
1630 4   
1631 1   
1632 5   
1633 6   
1634 2   
1635 5   
1636 2   
1637 3   
1638 8   
1639 1   
1640 2   
1641 2   
1642 1   
1643 9   
1644 4   
1645 3   
1646 9   
1647 9   
1648 4   
1649 8   
1650 2   
1651 10  
1652 3   
1653 7   
1654 4   
1655 9   
1656 9   
1657 9   
1658 9   
1659 8   
1660 7   
1661 1   
1662 7   
1663 3   
1664 9   
1665 7   
1666 2   
1667 4   
1668 8   
1669 6   
1670 1   
1671 6   
1672 6   
1673 5   
1674 4   
1675 8   
1676 6   
1677 9   
1678 10  
1679 3   
1680 3   
1681 4   
1682 7   
1683 1   
1684 1   
1685 10  
1686 5   
1687 10  
1688 10  
1689 1   
1690 3   
1691 8   
1692 3   
1693 8   
1694 6   
1695 6   
1696 9   
1697 9   
1698 5   
1699 7   
1700 5   
1701 7   
1702 6   
1703 6   
1704 3   
1705 1   
1706 4   
1707 3   
1708 3   
1709 5   
1710 4   
1711 3   
1712 1   
1713 9   
1714 4   
1715 2   
1716 1   
1717 9   
1718 1   
1719 3   
1720 6   
1721 4   
1722 1   
1723 9   
1724 9   
1725 2   
1726 2   
1727 4   
1728 4   
1729 6   
1730 6   
1731 3   
1732 2   
1733 6   
1734 1   
1735 7   
1736 6   
1737 4   
1738 10  
1739 5   
1740 6   
1741 6   
1742 2   
1743 8   
1744 10  
1745 2   
1746 5   
1747 7   
1748 3   
1749 7   
1750 7   
1751 4   
1752 8   
1753 7   
1754 10  
1755 2   
1756 7   
1757 9   
1758 4   
1759 6   
1760 2   
1761 8   
1762 4   
1763 5   
1764 3   
1765 9   
1766 1   
1767 3   
1768 8   
1769 4   
1770 7   
1771 2   
1772 2   
1773 7   
1774 2   
1775 6   
1776 6   
1777 6   
1778 5   
1779 3   
1780 5   
1781 6   
1782 2   
1783 1   
1784 5   
1785 5   
1786 1   
1787 6   
1788 4   
1789 4   
1790 9   
1791 8   
1792 5   
1793 5   
1794 8   
1795 2   
1796 6   
1797 9   
1798 10  
1799 4   
1800 9   
1801 5   
1802 1   
1803 7   
1804 6   
1805 10  
1806 6   
1807 4   
1808 3   
1809 9   
1810 4   
1811 4   
1812 2   
1813 1   
1814 2   
1815 5   
1816 10  
1817 9   
1818 1   
1819 1   
1820 10  
1821 2   
1822 4   
1823 3   
1824 9   
1825 8   
1826 7   
1827 1   
1828 7   
1829 10  
1830 5   
1831 9   
1832 8   
1833 6   
1834 1   
1835 8   
1836 3   
1837 5   
1838 7   
1839 10  
1840 6   
1841 8   
1842 10  
1843 9   
1844 1   
1845 1   
1846 1   
1847 2   
1848 5   
1849 4   
1850 2   
1851 2   
1852 9   
1853 6   
1854 1   
1855 3   
1856 4   
1857 7   
1858 8   
1859 2   
1860 6   
1861 8   
1862 4   
1863 1   
1864 7   
1865 6   
1866 2   
1867 2   
1868 2   
1869 1   
1870 1   
1871 7   
1872 1   
1873 4   
1874 6   
1875 5   
1876 7   
1877 2   
1878 1   
1879 4   
1880 1   
1881 9   
1882 9   
1883 2   
1884 5   
1885 6   
1886 2   
1887 6   
1888 6   
1889 10  
1890 1   
1891 7   
1892 1   
1893 4   
1894 4   
1895 2   
1896 3   
1897 10  
1898 8   
1899 9   
1900 8   
1901 9   
1902 2   
1903 3   
1904 5   
1905 6   
1906 7   
1907 10  
1908 2   
1909 5   
1910 1   
1911 3   
1912 4   
1913 8   
1914 9   
1915 3   
1916 3   
1917 3   
1918 8   
1919 8   
1920 7   
1921 8   
1922 4   
1923 10  
1924 7   
1925 6   
1926 9   
1927 7   
1928 5   
1929 2   
1930 5   
1931 10  
1932 4   
1933 10  
1934 4   
1935 6   
1936 2   
1937 8   
1938 4   
1939 6   
1940 6   
1941 6   
1942 7   
1943 8   
1944 6   
1945 3   
1946 8   
1947 9   
1948 6   
1949 4   
1950 3   
1951 1   
1952 6   
1953 9   
1954 8   
1955 1   
1956 10  
1957 7   
1958 2   
1959 1   
1960 10  
1961 7   
1962 7   
1963 4   
1964 8   
1965 5   
1966 10  
1967 8   
1968 6   
1969 2   
1970 7   
1971 9   
1972 8   
1973 1   
1974 5   
1975 9   
1976 6   
1977 4   
1978 9   
1979 5   
1980 1   
1981 1   
1982 1   
1983 8   
1984 3   
1985 8   
1986 4   
1987 7   
1988 8   
1989 6   
1990 1   
1991 9   
1992 1   
1993 10  
1994 7   
1995 4   
1996 3   
1997 8   
1998 3   
1999 10  
2000 10  
2001 6   
2002 3   
2003 6   
2004 6   
2005 6   
2006 5   
2007 8   
2008 8   
2009 10  
2010 4   
2011 10  
2012 10  
2013 1   
2014 6   
2015 3   
2016 5   
2017 1   
2018 4   
2019 1   
2020 5   
2021 2   
2022 10  
2023 7   
2024 10  
2025 4   
2026 5   
2027 5   
2028 1   
2029 4   
2030 2   
2031 6   
2032 4   
2033 3   
2034 2   
2035 3   
2036 9   
2037 2   
2038 1   
2039 1   
2040 9   
2041 2   
2042 4   
2043 6   
2044 10  
2045 10  
2046 4   
2047 8   
2048 4   
2049 1   
2050 8   
2051 8   
2052 2   
2053 9   
2054 3   
2055 6   
2056 10  
2057 8   
2058 8   
2059 1   
2060 7   
2061 6   
2062 9   
2063 9   
2064 9   
2065 7   
2066 2   
2067 3   
2068 6   
2069 5   
2070 4   
2071 6   
2072 8   
2073 2   
2074 2   
2075 8   
2076 3   
2077 7   
2078 7   
2079 7   
2080 2   
2081 3   
2082 1   
2083 7   
2084 10  
2085 4   
2086 3   
2087 2   
2088 6   
2089 4   
2090 8   
2091 4   
2092 5   
2093 3   
2094 7   
2095 3   
2096 5   
2097 6   
2098 8   
2099 1   
2100 3   
2101 4   
2102 9   
2103 10  
2104 2   
2105 4   
2106 10  
2107 2   
2108 1   
2109 10  
2110 9   
2111 7   
2112 8   
2113 8   
2114 4   
2115 10  
2116 9   
2117 10  
2118 3   
2119 10  
2120 2   
2121 5   
2122 2   
2123 6   
2124 10  
2125 7   
2126 8   
2127 3   
2128 5   
2129 6   
2130 4   
2131 10  
2132 7   
2133 4   
2134 10  
2135 4   
2136 3   
2137 2   
2138 10  
2139 4   
2140 2   
2141 9   
2142 5   
2143 10  
2144 3   
2145 2   
2146 1   
2147 2   
2148 2   
2149 9   
2150 9   
2151 6   
2152 9   
2153 4   
2154 4   
2155 1   
2156 7   
2157 4   
2158 5   
2159 7   
2160 10  
2161 6   
2162 8   
2163 2   
2164 7   
2165 10  
2166 9   
2167 6   
2168 5   
2169 3   
2170 5   
2171 6   
2172 8   
2173 9   
2174 2   
2175 4   
2176 2   
2177 7   
2178 1   
2179 1   
2180 5   
2181 2   
2182 7   
2183 3   
2184 1   
2185 6   
2186 7   
2187 6   
2188 5   
2189 1   
2190 4   
2191 4   
2192 1   
2193 1   
2194 5   
2195 4   
2196 1   
2197 5   
2198 3   
2199 2   
2200 8   
2201 1   
2202 1   
2203 6   
2204 9   
2205 3   
2206 2   
2207 5   
2208 8   
2209 8   
2210 4   
2211 1   
2212 8   
2213 2   
2214 8   
2215 6   
2216 8   
2217 8   
2218 4   
2219 4   
2220 7   
2221 1   
2222 3   
2223 2   
2224 4   
2225 1   
2226 7   
2227 3   
2228 4   
2229 5   
2230 4   
2231 10  
2232 1   
2233 9   
2234 6   
2235 3   
2236 5   
2237 3   
2238 9   
2239 4   
2240 3   
2241 3   
2242 4   
2243 9   
2244 3   
2245 8   
2246 8   
2247 2   
2248 2   
2249 9   
2250 7   
2251 2   
2252 7   
2253 4   
2254 9   
2255 2   
2256 10  
2257 6   
2258 9   
2259 7   
2260 5   
2261 10  
2262 10  
2263 4   
2264 9   
2265 8   
2266 8   
2267 3   
2268 4   
2269 8   
2270 6   
2271 3   
2272 4   
2273 4   
2274 3   
2275 9   
2276 9   
2277 2   
2278 9   
2279 10  
2280 6   
2281 8   
2282 2   
2283 4   
2284 4   
2285 5   
2286 8   
2287 9   
2288 6   
2289 8   
2290 3   
2291 6   
2292 5   
2293 3   
2294 2   
2295 6   
2296 5   
2297 8   
2298 9   
2299 10  
2300 4   
2301 9   
2302 7   
2303 3   
2304 9   
2305 1   
2306 5   
2307 8   
2308 1   
2309 7   
2310 7   
2311 7   
2312 8   
2313 2   
2314 7   
2315 7   
2316 7   
2317 7   
2318 9   
2319 6   
2320 7   
2321 9   
2322 4   
2323 9   
2324 4   
2325 4   
2326 2   
2327 5   
2328 3   
2329 5   
2330 5   
2331 4   
2332 7   
2333 9   
2334 5   
2335 5   
2336 6   
2337 7   
2338 4   
2339 3   
2340 8   
2341 7   
2342 5   
2343 8   
2344 2   
2345 4   
2346 2   
2347 6   
2348 6   
2349 5   
2350 6   
2351 1   
2352 1   
2353 8   
2354 7   
2355 10  
2356 7   
2357 10  
2358 3   
2359 7   
2360 10  
2361 1   
2362 6   
2363 1   
2364 1   
2365 7   
2366 7   
2367 8   
2368 10  
2369 7   
2370 8   
2371 6   
2372 10  
2373 7   
2374 1   
2375 9   
2376 6   
2377 6   
2378 7   
2379 7   
2380 5   
2381 3   
2382 1   
2383 8   
2384 3   
2385 4   
2386 1   
2387 3   
2388 4   
2389 5   
2390 9   
2391 3   
2392 2   
2393 5   
2394 3   
2395 10  
2396 5   
2397 7   
2398 2   
2399 10  
2400 5   
2401 7   
2402 7   
2403 7   
2404 7   
2405 4   
2406 1   
2407 7   
2408 7   
2409 8   
2410 1   
2411 8   
2412 6   
2413 6   
2414 7   
2415 3   
2416 5   
2417 1   
2418 4   
2419 3   
2420 7   
2421 4   
2422 8   
2423 3   
2424 8   
2425 1   
2426 2   
2427 6   
2428 1   
2429 5   
2430 8   
2431 6   
2432 1   
2433 5   
2434 3   
2435 5   
2436 3   
2437 3   
2438 9   
2439 5   
2440 10  
2441 1   
2442 3   
2443 4   
2444 10  
2445 3   
2446 7   
2447 6   
2448 4   
2449 6   
2450 8   
2451 8   
2452 1   
2453 3   
2454 9   
2455 5   
2456 1   
2457 9   
2458 5   
2459 4   
2460 2   
2461 5   
2462 4   
2463 8   
2464 6   
2465 1   
2466 1   
2467 6   
2468 10  
2469 7   
2470 6   
2471 9   
2472 6   
2473 6   
2474 2   
2475 6   
2476 9   
2477 3   
2478 3   
2479 10  
2480 9   
2481 5   
2482 1   
2483 6   
2484 7   
2485 6   
2486 9   
2487 5   
2488 10  
2489 7   
2490 9   
2491 9   
2492 7   
2493 3   
2494 6   
2495 6   
2496 7   
2497 1   
2498 10  
2499 1   
2500 2   
2501 4   
2502 7   
2503 3   
2504 9   
2505 7   
2506 10  
2507 5   
2508 5   
2509 5   
2510 1   
2511 6   
2512 4   
2513 1   
2514 6   
2515 8   
2516 9   
2517 4   
2518 10  
2519 10  
2520 3   
2521 8   
2522 5   
2523 7   
2524 9   
2525 10  
2526 2   
2527 4   
2528 7   
2529 5   
2530 9   
2531 7   
2532 3   
2533 4   
2534 2   
2535 5   
2536 4   
2537 3   
2538 9   
2539 7   
2540 8   
2541 9   
2542 10  
2543 9   
2544 9   
2545 6   
2546 10  
2547 10  
2548 6   
2549 3   
2550 3   
2551 4   
2552 4   
2553 7   
2554 3   
2555 8   
2556 9   
2557 4   
2558 10  
2559 2   
2560 8   
2561 10  
2562 5   
2563 1   
2564 10  
2565 1   
2566 5   
2567 6   
2568 2   
2569 8   
2570 10  
2571 8   
2572 2   
2573 1   
2574 7   
2575 1   
2576 1   
2577 2   
2578 1   
2579 8   
2580 4   
2581 3   
2582 9   
2583 10  
2584 1   
2585 8   
2586 1   
2587 1   
2588 3   
2589 8   
2590 1   
2591 2   
2592 5   
2593 2   
2594 3   
2595 10  
2596 9   
2597 3   
2598 7   
2599 8   
2600 7   
2601 9   
2602 6   
2603 4   
2604 9   
2605 3   
2606 6   
2607 5   
2608 3   
2609 6   
2610 6   
2611 4   
2612 7   
2613 8   
2614 2   
2615 7   
2616 10  
2617 4   
2618 6   
2619 7   
2620 5   
2621 3   
2622 8   
2623 4   
2624 6   
2625 7   
2626 10  
2627 2   
2628 2   
2629 2   
2630 10  
2631 2   
2632 2   
2633 3   
2634 10  
2635 4   
2636 5   
2637 4   
2638 6   
2639 2   
2640 1   
2641 9   
2642 1   
2643 9   
2644 9   
2645 10  
2646 10  
2647 1   
2648 3   
2649 1   
2650 2   
2651 3   
2652 6   
2653 3   
2654 3   
2655 9   
2656 10  
2657 1   
2658 4   
2659 6   
2660 4   
2661 7   
2662 8   
2663 3   
2664 3   
2665 3   
2666 10  
2667 7   
2668 3   
2669 2   
2670 10  
2671 5   
2672 3   
2673 8   
2674 6   
2675 6   
2676 9   
2677 10  
2678 2   
2679 8   
2680 9   
2681 1   
2682 10  
2683 6   
2684 5   
2685 2   
2686 6   
2687 6   
2688 5   
2689 7   
2690 5   
2691 1   
2692 6   
2693 10  
2694 2   
2695 5   
2696 8   
2697 6   
2698 9   
2699 9   
2700 2   
2701 3   
2702 6   
2703 8   
2704 10  
2705 2   
2706 3   
2707 10  
2708 8   
2709 9   
2710 9   
2711 6   
2712 8   
2713 3   
2714 5   
2715 8   
2716 10  
2717 7   
2718 5   
2719 2   
2720 3   
2721 9   
2722 8   
2723 6   
2724 5   
2725 9   
2726 1   
2727 6   
2728 2   
2729 4   
2730 3   
2731 10  
2732 1   
2733 4   
2734 8   
2735 5   
2736 2   
2737 5   
2738 3   
2739 7   
2740 4   
2741 4   
2742 1   
2743 9   
2744 5   
2745 9   
2746 1   
2747 3   
2748 2   
2749 2   
2750 10  
2751 10  
2752 7   
2753 7   
2754 6   
2755 1   
2756 9   
2757 4   
2758 7   
2759 2   
2760 8   
2761 5   
2762 10  
2763 10  
2764 8   
2765 6   
2766 4   
2767 9   
2768 9   
2769 7   
2770 8   
2771 6   
2772 7   
2773 4   
2774 10  
2775 2   
2776 2   
2777 8   
2778 9   
2779 2   
2780 4   
2781 5   
2782 2   
2783 1   
2784 2   
2785 1   
2786 6   
2787 3   
2788 6   
2789 2   
2790 7   
2791 10  
2792 3   
2793 8   
2794 2   
2795 8   
2796 10  
2797 4   
2798 8   
2799 4   
2800 6   
2801 5   
2802 10  
2803 10  
2804 7   
2805 1   
2806 1   
2807 3   
2808 1   
2809 9   
2810 10  
2811 2   
2812 7   
2813 10  
2814 10  
2815 1   
2816 4   
2817 5   
2818 9   
2819 3   
2820 10  
2821 1   
2822 7   
2823 9   
2824 10  
2825 7   
2826 2   
2827 9   
2828 9   
2829 10  
2830 3   
2831 4   
2832 10  
2833 4   
2834 8   
2835 4   
2836 2   
2837 7   
2838 3   
2839 1   
2840 4   
2841 7   
2842 2   
2843 5   
2844 2   
2845 4   
2846 6   
2847 2   
2848 2   
2849 10  
2850 10  
2851 8   
2852 6   
2853 9   
2854 9   
2855 9   
2856 2   
2857 9   
2858 10  
2859 10  
2860 9   
2861 6   
2862 9   
2863 5   
2864 1   
2865 8   
2866 5   
2867 3   
2868 10  
2869 8   
2870 7   
2871 9   
2872 8   
2873 6   
2874 5   
2875 2   
2876 2   
2877 10  
2878 4   
2879 9   
2880 2   
2881 10  
2882 8   
2883 5   
2884 2   
2885 9   
2886 9   
2887 3   
2888 5   
2889 10  
2890 4   
2891 8   
2892 2   
2893 8   
2894 2   
2895 8   
2896 5   
2897 1   
2898 10  
2899 1   
2900 7   
2901 3   
2902 5   
2903 4   
2904 10  
2905 1   
2906 9   
2907 10  
2908 3   
2909 5   
2910 6   
2911 8   
2912 8   
2913 1   
2914 9   
2915 3   
2916 5   
2917 1   
2918 9   
2919 10  
2920 8   
2921 7   
2922 10  
2923 9   
2924 5   
2925 9   
2926 10  
2927 7   
2928 9   
2929 6   
2930 8   
2931 3   
2932 6   
2933 3   
2934 4   
2935 4   
2936 1   
2937 6   
2938 7   
2939 8   
2940 5   
2941 2   
2942 9   
2943 2   
2944 4   
2945 6   
2946 9   
2947 7   
2948 10  
2949 2   
2950 3   
2951 8   
2952 1   
2953 5   
2954 4   
2955 9   
2956 3   
2957 2   
2958 10  
2959 9   
2960 5   
2961 6   
2962 2   
2963 1   
2964 9   
2965 2   
2966 6   
2967 7   
2968 2   
2969 10  
2970 8   
2971 7   
2972 7   
2973 1   
2974 1   
2975 1   
2976 5   
2977 2   
2978 10  
2979 5   
2980 5   
2981 4   
2982 3   
2983 8   
2984 9   
2985 1   
2986 9   
2987 4   
2988 8   
2989 4   
2990 9   
2991 3   
2992 10  
2993 4   
2994 3   
2995 4   
2996 3   
2997 2   
2998 5   
2999 10  
3000 5   
3001 4   
3002 8   
3003 4   
3004 8   
3005 7   
3006 5   
3007 8   
3008 2   
3009 7   
3010 6   
3011 1   
3012 8   
3013 7   
3014 2   
3015 3   
3016 10  
3017 10  
3018 4   
3019 4   
3020 4   
3021 2   
3022 5   
3023 7   
3024 7   
3025 3   
3026 1   
3027 3   
3028 7   
3029 1   
3030 10  
3031 6   
3032 10  
3033 6   
3034 6   
3035 9   
3036 5   
3037 4   
3038 2   
3039 1   
3040 1   
3041 3   
3042 4   
3043 5   
3044 2   
3045 2   
3046 4   
3047 2   
3048 1   
3049 1   
3050 9   
3051 5   
3052 7   
3053 10  
3054 3   
3055 5   
3056 9   
3057 8   
3058 9   
3059 6   
3060 10  
3061 10  
3062 9   
3063 9   
3064 8   
3065 3   
3066 8   
3067 10  
3068 10  
3069 7   
3070 5   
3071 10  
3072 1   
3073 6   
3074 7   
3075 5   
3076 10  
3077 2   
3078 4   
3079 1   
3080 5   
3081 1   
3082 5   
3083 3   
3084 7   
3085 4   
3086 6   
3087 4   
3088 2   
3089 3   
3090 3   
3091 2   
3092 7   
3093 10  
3094 7   
3095 2   
3096 2   
3097 1   
3098 7   
3099 10  
3100 3   
3101 7   
3102 4   
3103 6   
3104 2   
3105 9   
3106 4   
3107 8   
3108 10  
3109 3   
3110 1   
3111 5   
3112 4   
3113 9   
3114 4   
3115 7   
3116 8   
3117 5   
3118 4   
3119 5   
3120 6   
3121 9   
3122 7   
3123 5   
3124 4   
3125 1   
3126 8   
3127 5   
3128 1   
3129 7   
3130 7   
3131 6   
3132 9   
3133 6   
3134 6   
3135 7   
3136 3   
3137 5   
3138 5   
3139 4   
3140 8   
3141 5   
3142 9   
3143 5   
3144 2   
3145 7   
3146 3   
3147 3   
3148 5   
3149 2   
3150 5   
3151 1   
3152 6   
3153 9   
3154 8   
3155 6   
3156 1   
3157 9   
3158 4   
3159 2   
3160 10  
3161 9   
3162 10  
3163 6   
3164 7   
3165 10  
3166 1   
3167 4   
3168 2   
3169 8   
3170 10  
3171 9   
3172 8   
3173 5   
3174 6   
3175 9   
3176 10  
3177 10  
3178 9   
3179 3   
3180 10  
3181 6   
3182 10  
3183 3   
3184 2   
3185 10  
3186 7   
3187 2   
3188 1   
3189 10  
3190 7   
3191 4   
3192 10  
3193 9   
3194 9   
3195 1   
3196 9   
3197 6   
3198 3   
3199 7   
3200 1   
3201 5   
3202 6   
3203 3   
3204 10  
3205 5   
3206 9   
3207 9   
3208 5   
3209 4   
3210 7   
3211 6   
3212 5   
3213 10  
3214 3   
3215 3   
3216 1   
3217 8   
3218 1   
3219 4   
3220 4   
3221 5   
3222 8   
3223 7   
3224 3   
3225 7   
3226 7   
3227 1   
3228 9   
3229 8   
3230 7   
3231 10  
3232 9   
3233 8   
3234 10  
3235 8   
3236 3   
3237 8   
3238 1   
3239 3   
3240 10  
3241 9   
3242 3   
3243 5   
3244 10  
3245 8   
3246 8   
3247 2   
3248 6   
3249 9   
3250 4   
3251 6   
3252 8   
3253 9   
3254 5   
3255 2   
3256 3   
3257 2   
3258 8   
3259 7   
3260 5   
3261 3   
3262 4   
3263 5   
3264 10  
3265 3   
3266 10  
3267 8   
3268 6   
3269 9   
3270 8   
3271 8   
3272 5   
3273 7   
3274 3   
3275 4   
3276 9   
3277 4   
3278 2   
3279 5   
3280 10  
3281 2   
3282 9   
3283 6   
3284 8   
3285 3   
3286 4   
3287 6   
3288 2   
3289 2   
3290 8   
3291 9   
3292 3   
3293 3   
3294 6   
3295 4   
3296 4   
3297 5   
3298 1   
3299 8   
3300 3   
3301 4   
3302 1   
3303 4   
3304 4   
3305 10  
3306 10  
3307 10  
3308 1   
3309 1   
3310 7   
3311 4   
3312 10  
3313 6   
3314 3   
3315 2   
3316 6   
3317 4   
3318 2   
3319 1   
3320 5   
3321 4   
3322 7   
3323 10  
3324 1   
3325 9   
3326 4   
3327 7   
3328 5   
3329 3   
3330 6   
3331 7   
3332 5   
3333 4   
3334 9   
3335 6   
3336 9   
3337 2   
3338 1   
3339 3   
3340 5   
3341 8   
3342 7   
3343 1   
3344 7   
3345 7   
3346 3   
3347 8   
3348 6   
3349 1   
3350 9   
3351 4   
3352 6   
3353 10  
3354 3   
3355 1   
3356 2   
3357 8   
3358 5   
3359 9   
3360 3   
3361 7   
3362 7   
3363 8   
3364 2   
3365 3   
3366 10  
3367 5   
3368 9   
3369 10  
3370 10  
3371 8   
3372 3   
3373 7   
3374 1   
3375 8   
3376 7   
3377 1   
3378 9   
3379 10  
3380 6   
3381 6   
3382 3   
3383 5   
3384 10  
3385 7   
3386 4   
3387 6   
3388 3   
3389 7   
3390 6   
3391 3   
3392 6   
3393 3   
3394 1   
3395 7   
3396 2   
3397 7   
3398 1   
3399 4   
3400 2   
3401 4   
3402 5   
3403 5   
3404 2   
3405 10  
3406 5   
3407 1   
3408 8   
3409 7   
3410 4   
3411 6   
3412 4   
3413 5   
3414 2   
3415 2   
3416 2   
3417 10  
3418 1   
3419 1   
3420 10  
3421 6   
3422 6   
3423 6   
3424 8   
3425 5   
3426 6   
3427 9   
3428 7   
3429 3   
3430 4   
3431 2   
3432 2   
3433 8   
3434 5   
3435 6   
3436 3   
3437 6   
3438 9   
3439 6   
3440 10  
3441 10  
3442 9   
3443 10  
3444 9   
3445 5   
3446 3   
3447 6   
3448 8   
3449 9   
3450 9   
3451 5   
3452 5   
3453 6   
3454 6   
3455 1   
3456 10  
3457 8   
3458 10  
3459 4   
3460 6   
3461 5   
3462 1   
3463 6   
3464 6   
3465 10  
3466 3   
3467 10  
3468 10  
3469 2   
3470 3   
3471 1   
3472 1   
3473 9   
3474 8   
3475 6   
3476 3   
3477 2   
3478 1   
3479 6   
3480 6   
3481 10  
3482 10  
3483 3   
3484 7   
3485 4   
3486 10  
3487 8   
3488 2   
3489 1   
3490 5   
3491 4   
3492 8   
3493 1   
3494 8   
3495 6   
3496 4   
3497 1   
3498 4   
3499 1   
3500 9   
3501 5   
3502 7   
3503 4   
3504 7   
3505 8   
3506 6   
3507 9   
3508 8   
3509 5   
3510 5   
3511 1   
3512 4   
3513 2   
3514 4   
3515 5   
3516 4   
3517 5   
3518 9   
3519 5   
3520 3   
3521 2   
3522 4   
3523 9   
3524 10  
3525 5   
3526 4   
3527 4   
3528 2   
3529 8   
3530 9   
3531 9   
3532 4   
3533 5   
3534 3   
3535 1   
3536 4   
3537 9   
3538 9   
3539 4   
3540 2   
3541 6   
3542 10  
3543 1   
3544 4   
3545 4   
3546 10  
3547 3   
3548 4   
3549 6   
3550 10  
3551 5   
3552 6   
3553 8   
3554 7   
3555 1   
3556 10  
3557 7   
3558 3   
3559 5   
3560 10  
3561 4   
3562 8   
3563 6   
3564 7   
3565 5   
3566 7   
3567 2   
3568 2   
3569 3   
3570 3   
3571 6   
3572 6   
3573 6   
3574 5   
3575 5   
3576 3   
3577 1   
3578 6   
3579 9   
3580 7   
3581 3   
3582 7   
3583 8   
3584 3   
3585 5   
3586 7   
3587 3   
3588 2   
3589 7   
3590 4   
3591 1   
3592 4   
3593 8   
3594 1   
3595 4   
3596 5   
3597 5   
3598 6   
3599 8   
3600 7   
3601 2   
3602 9   
3603 6   
3604 8   
3605 1   
3606 8   
3607 2   
3608 8   
3609 1   
3610 1   
3611 8   
3612 10  
3613 9   
3614 2   
3615 7   
3616 10  
3617 10  
3618 2   
3619 6   
3620 2   
3621 10  
3622 1   
3623 2   
3624 6   
3625 8   
3626 4   
3627 7   
3628 2   
3629 4   
3630 7   
3631 1   
3632 10  
3633 7   
3634 6   
3635 5   
3636 7   
3637 1   
3638 4   
3639 8   
3640 8   
3641 7   
3642 2   
3643 3   
3644 6   
3645 2   
3646 7   
3647 5   
3648 4   
3649 10  
3650 4   
3651 5   
3652 10  
3653 1   
3654 10  
3655 9   
3656 6   
3657 7   
3658 10  
3659 10  
3660 2   
3661 5   
3662 3   
3663 2   
3664 4   
3665 5   
3666 9   
3667 8   
3668 10  
3669 9   
3670 6   
3671 4   
3672 3   
3673 10  
3674 3   
3675 5   
3676 8   
3677 4   
3678 9   
3679 5   
3680 10  
3681 4   
3682 4   
3683 4   
3684 4   
3685 6   
3686 3   
3687 1   
3688 9   
3689 9   
3690 5   
3691 3   
3692 4   
3693 4   
3694 4   
3695 2   
3696 2   
3697 1   
3698 2   
3699 2   
3700 2   
3701 3   
3702 2   
3703 1   
3704 7   
3705 4   
3706 6   
3707 8   
3708 2   
3709 8   
3710 1   
3711 7   
3712 5   
3713 9   
3714 7   
3715 7   
3716 8   
3717 8   
3718 5   
3719 5   
3720 1   
3721 7   
3722 10  
3723 7   
3724 10  
3725 7   
3726 5   
3727 3   
3728 3   
3729 1   
3730 1   
3731 3   
3732 6   
3733 3   
3734 4   
3735 7   
3736 9   
3737 3   
3738 9   
3739 2   
3740 1   
3741 1   
3742 1   
3743 6   
3744 3   
3745 4   
3746 4   
3747 8   
3748 7   
3749 7   
3750 4   
3751 9   
3752 5   
3753 8   
3754 6   
3755 7   
3756 4   
3757 3   
3758 5   
3759 2   
3760 9   
3761 7   
3762 2   
3763 1   
3764 8   
3765 2   
3766 5   
3767 7   
3768 7   
3769 7   
3770 4   
3771 3   
3772 3   
3773 3   
3774 5   
3775 10  
3776 6   
3777 9   
3778 8   
3779 5   
3780 9   
3781 6   
3782 7   
3783 5   
3784 10  
3785 9   
3786 7   
3787 9   
3788 2   
3789 3   
3790 9   
3791 10  
3792 3   
3793 6   
3794 6   
3795 6   
3796 4   
3797 5   
3798 8   
3799 3   
3800 10  
3801 5   
3802 1   
3803 6   
3804 7   
3805 2   
3806 1   
3807 8   
3808 10  
3809 1   
3810 8   
3811 9   
3812 8   
3813 9   
3814 2   
3815 10  
3816 1   
3817 9   
3818 2   
3819 3   
3820 2   
3821 7   
3822 9   
3823 5   
3824 1   
3825 6   
3826 5   
3827 2   
3828 4   
3829 8   
3830 6   
3831 3   
3832 3   
3833 3   
3834 6   
3835 3   
3836 3   
3837 8   
3838 10  
3839 8   
3840 3   
3841 5   
3842 10  
3843 2   
3844 2   
3845 5   
3846 9   
3847 1   
3848 8   
3849 9   
3850 7   
3851 6   
3852 2   
3853 5   
3854 1   
3855 9   
3856 5   
3857 2   
3858 6   
3859 6   
3860 4   
3861 5   
3862 1   
3863 5   
3864 5   
3865 3   
3866 5   
3867 4   
3868 1   
3869 8   
3870 3   
3871 4   
3872 3   
3873 9   
3874 4   
3875 9   
3876 3   
3877 1   
3878 9   
3879 9   
3880 1   
3881 1   
3882 6   
3883 9   
3884 10  
3885 9   
3886 1   
3887 9   
3888 6   
3889 4   
3890 1   
3891 7   
3892 7   
3893 10  
3894 10  
3895 4   
3896 5   
3897 6   
3898 10  
3899 8   
3900 10  
3901 3   
3902 2   
3903 10  
3904 9   
3905 1   
3906 2   
3907 4   
3908 1   
3909 7   
3910 3   
3911 2   
3912 7   
3913 4   
3914 1   
3915 5   
3916 7   
3917 8   
3918 7   
3919 1   
3920 3   
3921 7   
3922 7   
3923 10  
3924 7   
3925 1   
3926 5   
3927 1   
3928 5   
3929 5   
3930 9   
3931 4   
3932 7   
3933 6   
3934 9   
3935 8   
3936 4   
3937 4   
3938 5   
3939 3   
3940 7   
3941 7   
3942 9   
3943 10  
3944 4   
3945 8   
3946 10  
3947 2   
3948 1   
3949 3   
3950 2   
3951 7   
3952 5   
3953 5   
3954 7   
3955 10  
3956 4   
3957 2   
3958 10  
3959 10  
3960 2   
3961 6   
3962 1   
3963 5   
3964 10  
3965 6   
3966 4   
3967 7   
3968 4   
3969 10  
3970 9   
3971 1   
3972 1   
3973 3   
3974 7   
3975 8   
3976 4   
3977 1   
3978 10  
3979 9   
3980 3   
3981 9   
3982 3   
3983 2   
3984 9   
3985 5   
3986 1   
3987 2   
3988 2   
3989 10  
3990 1   
3991 3   
3992 3   
3993 5   
3994 9   
3995 4   
3996 3   
3997 10  
3998 10  
3999 4   
4000 6   
4001 4   
4002 2   
4003 6   
4004 6   
4005 8   
4006 4   
4007 6   
4008 3   
4009 9   
4010 4   
4011 8   
4012 1   
4013 9   
4014 1   
4015 8   
4016 9   
4017 7   
4018 7   
4019 4   
4020 6   
4021 7   
4022 1   
4023 8   
4024 6   
4025 4   
4026 6   
4027 5   
4028 5   
4029 7   
4030 10  
4031 1   
4032 8   
4033 7   
4034 1   
4035 6   
4036 3   
4037 2   
4038 3   
4039 3   
4040 5   
4041 4   
4042 1   
4043 1   
4044 3   
4045 7   
4046 3   
4047 6   
4048 7   
4049 10  
4050 5   
4051 2   
4052 5   
4053 4   
4054 1   
4055 3   
4056 7   
4057 3   
4058 9   
4059 9   
4060 4   
4061 2   
4062 10  
4063 8   
4064 3   
4065 7   
4066 3   
4067 10  
4068 7   
4069 6   
4070 1   
4071 3   
4072 7   
4073 4   
4074 6   
4075 8   
4076 8   
4077 8   
4078 6   
4079 8   
4080 5   
4081 7   
4082 2   
4083 4   
4084 7   
4085 4   
4086 2   
4087 3   
4088 5   
4089 4   
4090 6   
4091 5   
4092 3   
4093 1   
4094 5   
4095 1   
4096 4   
4097 5   
4098 4   
4099 5   
4100 8   
4101 4   
4102 10  
4103 6   
4104 2   
4105 10  
4106 8   
4107 8   
4108 9   
4109 8   
4110 8   
4111 9   
4112 2   
4113 3   
4114 7   
4115 6   
4116 7   
4117 4   
4118 7   
4119 3   
4120 5   
4121 9   
4122 8   
4123 4   
4124 5   
4125 2   
4126 9   
4127 10  
4128 6   
4129 4   
4130 4   
4131 3   
4132 2   
4133 10  
4134 2   
4135 1   
4136 7   
4137 8   
4138 5   
4139 9   
4140 7   
4141 6   
4142 8   
4143 1   
4144 4   
4145 9   
4146 5   
4147 10  
4148 7   
4149 3   
4150 5   
4151 4   
4152 5   
4153 7   
4154 9   
4155 3   
4156 7   
4157 3   
4158 6   
4159 5   
4160 8   
4161 2   
4162 7   
4163 2   
4164 1   
4165 7   
4166 6   
4167 7   
4168 6   
4169 8   
4170 8   
4171 9   
4172 5   
4173 9   
4174 2   
4175 7   
4176 7   
4177 3   
4178 5   
4179 3   
4180 6   
4181 2   
4182 5   
4183 8   
4184 9   
4185 10  
4186 1   
4187 5   
4188 9   
4189 5   
4190 10  
4191 10  
4192 6   
4193 1   
4194 7   
4195 4   
4196 10  
4197 4   
4198 7   
4199 10  
4200 2   
4201 2   
4202 7   
4203 3   
4204 4   
4205 8   
4206 1   
4207 10  
4208 1   
4209 7   
4210 3   
4211 7   
4212 10  
4213 7   
4214 10  
4215 7   
4216 8   
4217 4   
4218 8   
4219 4   
4220 9   
4221 3   
4222 3   
4223 6   
4224 3   
4225 7   
4226 6   
4227 2   
4228 5   
4229 6   
4230 2   
4231 6   
4232 9   
4233 6   
4234 7   
4235 5   
4236 9   
4237 1   
4238 9   
4239 6   
4240 5   
4241 1   
4242 9   
4243 9   
4244 3   
4245 2   
4246 5   
4247 6   
4248 6   
4249 6   
4250 10  
4251 7   
4252 5   
4253 3   
4254 1   
4255 2   
4256 5   
4257 2   
4258 7   
4259 7   
4260 5   
4261 9   
4262 4   
4263 6   
4264 6   
4265 2   
4266 5   
4267 10  
4268 7   
4269 8   
4270 6   
4271 9   
4272 4   
4273 1   
4274 9   
4275 10  
4276 3   
4277 1   
4278 5   
4279 10  
4280 1   
4281 9   
4282 4   
4283 5   
4284 3   
4285 4   
4286 9   
4287 2   
4288 9   
4289 10  
4290 3   
4291 3   
4292 6   
4293 9   
4294 2   
4295 2   
4296 2   
4297 4   
4298 4   
4299 9   
4300 5   
4301 9   
4302 7   
4303 6   
4304 10  
4305 4   
4306 1   
4307 5   
4308 6   
4309 4   
4310 6   
4311 2   
4312 6   
4313 5   
4314 4   
4315 4   
4316 4   
4317 3   
4318 8   
4319 1   
4320 6   
4321 3   
4322 5   
4323 1   
4324 1   
4325 5   
4326 5   
4327 7   
4328 3   
4329 4   
4330 9   
4331 4   
4332 1   
4333 6   
4334 1   
4335 3   
4336 9   
4337 2   
4338 5   
4339 2   
4340 10  
4341 9   
4342 2   
4343 1   
4344 6   
4345 4   
4346 5   
4347 4   
4348 1   
4349 5   
4350 8   
4351 3   
4352 1   
4353 3   
4354 7   
4355 4   
4356 10  
4357 2   
4358 9   
4359 3   
4360 6   
4361 5   
4362 10  
4363 1   
4364 10  
4365 10  
4366 4   
4367 5   
4368 4   
4369 7   
4370 6   
4371 2   
4372 1   
4373 3   
4374 7   
4375 3   
4376 9   
4377 3   
4378 8   
4379 3   
4380 8   
4381 2   
4382 2   
4383 10  
4384 3   
4385 5   
4386 1   
4387 5   
4388 9   
4389 5   
4390 4   
4391 9   
4392 8   
4393 10  
4394 2   
4395 2   
4396 4   
4397 4   
4398 2   
4399 3   
4400 8   
4401 1   
4402 1   
4403 8   
4404 3   
4405 7   
4406 9   
4407 3   
4408 9   
4409 8   
4410 6   
4411 2   
4412 8   
4413 5   
4414 8   
4415 10  
4416 3   
4417 5   
4418 7   
4419 3   
4420 9   
4421 7   
4422 3   
4423 1   
4424 3   
4425 8   
4426 5   
4427 4   
4428 10  
4429 3   
4430 10  
4431 7   
4432 8   
4433 6   
4434 2   
4435 6   
4436 10  
4437 8   
4438 2   
4439 2   
4440 6   
4441 6   
4442 10  
4443 3   
4444 5   
4445 5   
4446 8   
4447 1   
4448 2   
4449 7   
4450 3   
4451 3   
4452 7   
4453 5   
4454 3   
4455 4   
4456 7   
4457 3   
4458 9   
4459 10  
4460 5   
4461 7   
4462 8   
4463 6   
4464 2   
4465 7   
4466 5   
4467 4   
4468 9   
4469 2   
4470 7   
4471 5   
4472 1   
4473 1   
4474 3   
4475 10  
4476 1   
4477 2   
4478 1   
4479 6   
4480 8   
4481 2   
4482 2   
4483 6   
4484 8   
4485 8   
4486 6   
4487 10  
4488 4   
4489 8   
4490 10  
4491 7   
4492 8   
4493 2   
4494 5   
4495 10  
4496 1   
4497 3   
4498 6   
4499 5   
4500 2   
4501 9   
4502 10  
4503 7   
4504 1   
4505 4   
4506 5   
4507 2   
4508 9   
4509 2   
4510 3   
4511 5   
4512 2   
4513 9   
4514 9   
4515 3   
4516 10  
4517 5   
4518 5   
4519 3   
4520 9   
4521 9   
4522 1   
4523 10  
4524 4   
4525 5   
4526 9   
4527 3   
4528 4   
4529 2   
4530 5   
4531 8   
4532 1   
4533 9   
4534 2   
4535 3   
4536 5   
4537 9   
4538 5   
4539 8   
4540 9   
4541 6   
4542 10  
4543 2   
4544 2   
4545 6   
4546 1   
4547 2   
4548 4   
4549 2   
4550 4   
4551 10  
4552 10  
4553 7   
4554 6   
4555 6   
4556 8   
4557 8   
4558 6   
4559 7   
4560 1   
4561 8   
4562 5   
4563 10  
4564 4   
4565 5   
4566 5   
4567 2   
4568 10  
4569 1   
4570 9   
4571 8   
4572 8   
4573 2   
4574 1   
4575 3   
4576 6   
4577 8   
4578 6   
4579 8   
4580 1   
4581 7   
4582 10  
4583 9   
4584 5   
4585 5   
4586 5   
4587 10  
4588 4   
4589 3   
4590 6   
4591 10  
4592 2   
4593 6   
4594 2   
4595 9   
4596 7   
4597 7   
4598 2   
4599 6   
4600 3   
4601 5   
4602 3   
4603 10  
4604 4   
4605 5   
4606 2   
4607 10  
4608 6   
4609 4   
4610 9   
4611 8   
4612 2   
4613 1   
4614 5   
4615 1   
4616 5   
4617 6   
4618 9   
4619 3   
4620 8   
4621 2   
4622 8   
4623 10  
4624 7   
4625 9   
4626 3   
4627 6   
4628 2   
4629 1   
4630 3   
4631 7   
4632 7   
4633 7   
4634 4   
4635 4   
4636 6   
4637 4   
4638 1   
4639 1   
4640 9   
4641 10  
4642 9   
4643 10  
4644 2   
4645 9   
4646 8   
4647 10  
4648 7   
4649 6   
4650 7   
4651 1   
4652 1   
4653 9   
4654 7   
4655 1   
4656 4   
4657 8   
4658 5   
4659 2   
4660 5   
4661 2   
4662 3   
4663 3   
4664 5   
4665 1   
4666 9   
4667 3   
4668 3   
4669 10  
4670 4   
4671 5   
4672 7   
4673 6   
4674 6   
4675 3   
4676 4   
4677 5   
4678 8   
4679 2   
4680 10  
4681 10  
4682 8   
4683 1   
4684 9   
4685 1   
4686 7   
4687 9   
4688 5   
4689 6   
4690 9   
4691 1   
4692 10  
4693 1   
4694 8   
4695 6   
4696 4   
4697 7   
4698 5   
4699 10  
4700 9   
4701 3   
4702 3   
4703 2   
4704 1   
4705 7   
4706 1   
4707 8   
4708 5   
4709 8   
4710 5   
4711 4   
4712 10  
4713 8   
4714 8   
4715 3   
4716 5   
4717 7   
4718 4   
4719 6   
4720 7   
4721 4   
4722 7   
4723 5   
4724 6   
4725 10  
4726 10  
4727 6   
4728 10  
4729 3   
4730 8   
4731 10  
4732 4   
4733 9   
4734 7   
4735 2   
4736 7   
4737 6   
4738 7   
4739 6   
4740 8   
4741 5   
4742 1   
4743 5   
4744 4   
4745 6   
4746 10  
4747 7   
4748 5   
4749 1   
4750 6   
4751 1   
4752 10  
4753 2   
4754 6   
4755 4   
4756 3   
4757 1   
4758 10  
4759 1   
4760 8   
4761 8   
4762 3   
4763 10  
4764 8   
4765 10  
4766 8   
4767 9   
4768 5   
4769 6   
4770 5   
4771 9   
4772 7   
4773 1   
4774 7   
4775 5   
4776 8   
4777 4   
4778 2   
4779 1   
4780 7   
4781 2   
4782 6   
4783 8   
4784 9   
4785 5   
4786 4   
4787 6   
4788 10  
4789 3   
4790 8   
4791 3   
4792 5   
4793 8   
4794 5   
4795 3   
4796 9   
4797 3   
4798 10  
4799 4   
4800 4   
4801 1   
4802 2   
4803 6   
4804 10  
4805 5   
4806 7   
4807 3   
4808 2   
4809 1   
4810 1   
4811 3   
4812 4   
4813 9   
4814 10  
4815 4   
4816 8   
4817 6   
4818 4   
4819 3   
4820 7   
4821 8   
4822 6   
4823 8   
4824 1   
4825 8   
4826 3   
4827 1   
4828 1   
4829 7   
4830 7   
4831 9   
4832 4   
4833 4   
4834 1   
4835 8   
4836 7   
4837 3   
4838 3   
4839 7   
4840 9   
4841 10  
4842 6   
4843 5   
4844 2   
4845 7   
4846 1   
4847 5   
4848 2   
4849 7   
4850 4   
4851 4   
4852 6   
4853 3   
4854 9   
4855 7   
4856 5   
4857 10  
4858 3   
4859 4   
4860 7   
4861 9   
4862 2   
4863 10  
4864 10  
4865 6   
4866 10  
4867 7   
4868 3   
4869 9   
4870 8   
4871 5   
4872 9   
4873 10  
4874 10  
4875 5   
4876 7   
4877 5   
4878 1   
4879 10  
4880 10  
4881 6   
4882 2   
4883 4   
4884 7   
4885 2   
4886 6   
4887 6   
4888 8   
4889 4   
4890 10  
4891 6   
4892 4   
4893 10  
4894 1   
4895 5   
4896 8   
4897 2   
4898 1   
4899 5   
4900 10  
4901 5   
4902 2   
4903 5   
4904 1   
4905 4   
4906 5   
4907 4   
4908 5   
4909 8   
4910 4   
4911 7   
4912 10  
4913 10  
4914 9   
4915 9   
4916 1   
4917 5   
4918 9   
4919 7   
4920 6   
4921 2   
4922 7   
4923 4   
4924 8   
4925 2   
4926 9   
4927 4   
4928 6   
4929 2   
4930 3   
4931 1   
4932 10  
4933 10  
4934 3   
4935 5   
4936 8   
4937 5   
4938 10  
4939 8   
4940 9   
4941 7   
4942 1   
4943 7   
4944 9   
4945 5   
4946 2   
4947 5   
4948 7   
4949 10  
4950 7   
4951 4   
4952 10  
4953 4   
4954 1   
4955 1   
4956 4   
4957 3   
4958 9   
4959 8   
4960 3   
4961 5   
4962 8   
4963 2   
4964 1   
4965 4   
4966 8   
4967 8   
4968 5   
4969 5   
4970 3   
4971 8   
4972 8   
4973 5   
4974 5   
4975 3   
4976 9   
4977 5   
4978 7   
4979 5   
4980 2   
4981 9   
4982 3   
4983 3   
4984 5   
4985 6   
4986 8   
4987 1   
4988 1   
4989 6   
4990 3   
4991 10  
4992 8   
4993 4   
4994 1   
4995 2   
4996 7   
4997 8   
4998 5   
4999 9   
5000 2   
5001 8   
5002 6   
5003 6   
5004 5   
5005 7   
5006 3   
5007 3   
5008 8   
5009 4   
5010 6   
5011 4   
5012 4   
5013 2   
5014 5   
5015 10  
5016 5   
5017 3   
5018 1   
5019 9   
5020 9   
5021 9   
5022 8   
5023 9   
5024 2   
5025 1   
5026 8   
5027 8   
5028 6   
5029 3   
5030 1   
5031 9   
5032 9   
5033 8   
5034 6   
5035 2   
5036 2   
5037 2   
5038 5   
5039 8   
5040 6   
5041 6   
5042 6   
5043 3   
5044 3   
5045 8   
5046 8   
5047 10  
5048 3   
5049 8   
5050 5   
5051 2   
5052 7   
5053 10  
5054 6   
5055 5   
5056 3   
5057 10  
5058 1   
5059 3   
5060 2   
5061 2   
5062 2   
5063 8   
5064 1   
5065 5   
5066 6   
5067 2   
5068 7   
5069 9   
5070 10  
5071 5   
5072 7   
5073 9   
5074 1   
5075 4   
5076 1   
5077 6   
5078 8   
5079 3   
5080 9   
5081 8   
5082 6   
5083 8   
5084 4   
5085 3   
5086 7   
5087 1   
5088 9   
5089 6   
5090 8   
5091 5   
5092 4   
5093 5   
5094 1   
5095 6   
5096 1   
5097 4   
5098 8   
5099 3   
5100 7   
5101 7   
5102 8   
5103 1   
5104 2   
5105 3   
5106 7   
5107 6   
5108 5   
5109 6   
5110 3   
5111 3   
5112 2   
5113 2   
5114 4   
5115 4   
5116 5   
5117 3   
5118 2   
5119 7   
5120 4   
5121 10  
5122 1   
5123 6   
5124 2   
5125 2   
5126 5   
5127 2   
5128 6   
5129 4   
5130 3   
5131 1   
5132 4   
5133 10  
5134 4   
5135 4   
5136 5   
5137 5   
5138 10  
5139 4   
5140 5   
5141 5   
5142 3   
5143 10  
5144 3   
5145 6   
5146 4   
5147 9   
5148 1   
5149 6   
5150 8   
5151 6   
5152 8   
5153 6   
5154 8   
5155 8   
5156 8   
5157 8   
5158 3   
5159 10  
5160 7   
5161 3   
5162 5   
5163 5   
5164 8   
5165 4   
5166 10  
5167 6   
5168 3   
5169 6   
5170 10  
5171 6   
5172 10  
5173 5   
5174 8   
5175 7   
5176 1   
5177 8   
5178 5   
5179 7   
5180 3   
5181 9   
5182 9   
5183 10  
5184 3   
5185 1   
5186 8   
5187 7   
5188 8   
5189 5   
5190 2   
5191 7   
5192 6   
5193 3   
5194 6   
5195 2   
5196 8   
5197 2   
5198 4   
5199 1   
5200 4   
5201 9   
5202 2   
5203 1   
5204 6   
5205 6   
5206 3   
5207 8   
5208 9   
5209 4   
5210 9   
5211 2   
5212 2   
5213 7   
5214 6   
5215 2   
5216 9   
5217 3   
5218 9   
5219 1   
5220 8   
5221 4   
5222 2   
5223 2   
5224 9   
5225 8   
5226 4   
5227 3   
5228 1   
5229 7   
5230 5   
5231 2   
5232 8   
5233 5   
5234 9   
5235 4   
5236 2   
5237 9   
5238 9   
5239 8   
5240 6   
5241 6   
5242 1   
5243 10  
5244 10  
5245 6   
5246 3   
5247 3   
5248 10  
5249 5   
5250 5   
5251 2   
5252 4   
5253 5   
5254 6   
5255 5   
5256 1   
5257 1   
5258 6   
5259 2   
5260 10  
5261 4   
5262 8   
5263 8   
5264 3   
5265 7   
5266 7   
5267 1   
5268 8   
5269 6   
5270 5   
5271 2   
5272 4   
5273 5   
5274 2   
5275 9   
5276 3   
5277 2   
5278 6   
5279 4   
5280 1   
5281 5   
5282 8   
5283 5   
5284 1   
5285 6   
5286 4   
5287 5   
5288 8   
5289 8   
5290 5   
5291 7   
5292 10  
5293 2   
5294 7   
5295 9   
5296 7   
5297 5   
5298 4   
5299 7   
5300 5   
5301 6   
5302 5   
5303 1   
5304 5   
5305 5   
5306 6   
5307 9   
5308 6   
5309 2   
5310 6   
5311 6   
5312 1   
5313 2   
5314 9   
5315 2   
5316 2   
5317 6   
5318 6   
5319 10  
5320 2   
5321 2   
5322 2   
5323 5   
5324 7   
5325 8   
5326 3   
5327 2   
5328 3   
5329 2   
5330 6   
5331 10  
5332 4   
5333 4   
5334 6   
5335 8   
5336 4   
5337 1   
5338 8   
5339 1   
5340 10  
5341 8   
5342 8   
5343 2   
5344 2   
5345 5   
5346 3   
5347 2   
5348 2   
5349 7   
5350 6   
5351 3   
5352 2   
5353 2   
5354 7   
5355 3   
5356 7   
5357 1   
5358 10  
5359 6   
5360 5   
5361 5   
5362 9   
5363 10  
5364 7   
5365 8   
5366 10  
5367 6   
5368 1   
5369 1   
5370 8   
5371 10  
5372 8   
5373 9   
5374 1   
5375 6   
5376 6   
5377 9   
5378 5   
5379 1   
5380 9   
5381 8   
5382 9   
5383 3   
5384 3   
5385 4   
5386 10  
5387 3   
5388 7   
5389 8   
5390 1   
5391 4   
5392 3   
5393 6   
5394 9   
5395 2   
5396 6   
5397 8   
5398 8   
5399 6   
5400 8   
5401 1   
5402 10  
5403 3   
5404 9   
5405 4   
5406 2   
5407 6   
5408 4   
5409 3   
5410 6   
5411 1   
5412 4   
5413 8   
5414 9   
5415 1   
5416 5   
5417 4   
5418 10  
5419 2   
5420 3   
5421 1   
5422 7   
5423 9   
5424 1   
5425 6   
5426 4   
5427 6   
5428 10  
5429 1   
5430 4   
5431 4   
5432 4   
5433 6   
5434 7   
5435 3   
5436 3   
5437 3   
5438 10  
5439 3   
5440 6   
5441 10  
5442 3   
5443 1   
5444 7   
5445 5   
5446 5   
5447 10  
5448 8   
5449 3   
5450 8   
5451 5   
5452 10  
5453 1   
5454 1   
5455 5   
5456 5   
5457 10  
5458 8   
5459 2   
5460 7   
5461 10  
5462 8   
5463 9   
5464 3   
5465 7   
5466 9   
5467 10  
5468 1   
5469 9   
5470 4   
5471 2   
5472 8   
5473 1   
5474 7   
5475 10  
5476 2   
5477 7   
5478 8   
5479 4   
5480 1   
5481 7   
5482 4   
5483 6   
5484 4   
5485 7   
5486 4   
5487 6   
5488 9   
5489 5   
5490 2   
5491 3   
5492 6   
5493 7   
5494 7   
5495 6   
5496 9   
5497 10  
5498 3   
5499 8   
5500 1   
5501 3   
5502 2   
5503 6   
5504 3   
5505 2   
5506 6   
5507 2   
5508 9   
5509 6   
5510 4   
5511 1   
5512 1   
5513 3   
5514 6   
5515 8   
5516 1   
5517 5   
5518 4   
5519 9   
5520 6   
5521 9   
5522 1   
5523 5   
5524 9   
5525 2   
5526 3   
5527 4   
5528 2   
5529 6   
5530 3   
5531 7   
5532 2   
5533 10  
5534 4   
5535 7   
5536 5   
5537 8   
5538 9   
5539 10  
5540 7   
5541 4   
5542 4   
5543 2   
5544 2   
5545 1   
5546 9   
5547 9   
5548 1   
5549 1   
5550 8   
5551 5   
5552 6   
5553 4   
5554 5   
5555 5   
5556 2   
5557 7   
5558 5   
5559 3   
5560 6   
5561 5   
5562 3   
5563 7   
5564 9   
5565 9   
5566 2   
5567 10  
5568 4   
5569 7   
5570 8   
5571 6   
5572 4   
5573 7   
5574 2   
5575 5   
5576 8   
5577 6   
5578 8   
5579 8   
5580 9   
5581 3   
5582 8   
5583 5   
5584 10  
5585 4   
5586 8   
5587 4   
5588 8   
5589 10  
5590 1   
5591 8   
5592 10  
5593 7   
5594 9   
5595 3   
5596 3   
5597 7   
5598 9   
5599 4   
5600 4   
5601 3   
5602 5   
5603 10  
5604 5   
5605 10  
5606 7   
5607 3   
5608 7   
5609 9   
5610 5   
5611 1   
5612 1   
5613 9   
5614 6   
5615 10  
5616 6   
5617 4   
5618 2   
5619 2   
5620 4   
5621 7   
5622 9   
5623 4   
5624 7   
5625 4   
5626 4   
5627 10  
5628 1   
5629 6   
5630 9   
5631 9   
5632 9   
5633 10  
5634 8   
5635 10  
5636 6   
5637 6   
5638 6   
5639 5   
5640 9   
5641 2   
5642 9   
5643 10  
5644 10  
5645 10  
5646 5   
5647 8   
5648 6   
5649 9   
5650 6   
5651 4   
5652 2   
5653 5   
5654 7   
5655 2   
5656 5   
5657 2   
5658 7   
5659 5   
5660 9   
5661 3   
5662 3   
5663 4   
5664 10  
5665 10  
5666 4   
5667 2   
5668 8   
5669 5   
5670 9   
5671 10  
5672 4   
5673 7   
5674 2   
5675 2   
5676 3   
5677 5   
5678 2   
5679 9   
5680 6   
5681 8   
5682 4   
5683 7   
5684 2   
5685 2   
5686 4   
5687 10  
5688 10  
5689 4   
5690 9   
5691 7   
5692 9   
5693 6   
5694 2   
5695 1   
5696 8   
5697 9   
5698 4   
5699 6   
5700 6   
5701 10  
5702 4   
5703 8   
5704 10  
5705 6   
5706 9   
5707 3   
5708 5   
5709 7   
5710 4   
5711 6   
5712 1   
5713 7   
5714 5   
5715 6   
5716 4   
5717 1   
5718 5   
5719 2   
5720 1   
5721 9   
5722 10  
5723 8   
5724 10  
5725 7   
5726 6   
5727 6   
5728 1   
5729 5   
5730 1   
5731 9   
5732 6   
5733 1   
5734 2   
5735 8   
5736 10  
5737 7   
5738 6   
5739 5   
5740 1   
5741 3   
5742 7   
5743 3   
5744 7   
5745 8   
5746 6   
5747 10  
5748 8   
5749 1   
5750 4   
5751 5   
5752 5   
5753 6   
5754 3   
5755 8   
5756 1   
5757 4   
5758 10  
5759 10  
5760 3   
5761 4   
5762 9   
5763 8   
5764 3   
5765 10  
5766 4   
5767 6   
5768 5   
5769 9   
5770 1   
5771 4   
5772 7   
5773 6   
5774 8   
5775 6   
5776 4   
5777 4   
5778 9   
5779 8   
5780 3   
5781 7   
5782 9   
5783 7   
5784 6   
5785 7   
5786 7   
5787 9   
5788 8   
5789 4   
5790 5   
5791 6   
5792 9   
5793 1   
5794 1   
5795 7   
5796 8   
5797 10  
5798 3   
5799 4   
5800 3   
5801 9   
5802 2   
5803 3   
5804 7   
5805 5   
5806 2   
5807 8   
5808 5   
5809 10  
5810 10  
5811 4   
5812 9   
5813 8   
5814 3   
5815 10  
5816 6   
5817 8   
5818 6   
5819 8   
5820 10  
5821 4   
5822 10  
5823 2   
5824 1   
5825 4   
5826 2   
5827 6   
5828 4   
5829 4   
5830 8   
5831 1   
5832 3   
5833 1   
5834 2   
5835 3   
5836 4   
5837 8   
5838 1   
5839 5   
5840 9   
5841 9   
5842 7   
5843 10  
5844 6   
5845 6   
5846 3   
5847 5   
5848 9   
5849 8   
5850 8   
5851 8   
5852 7   
5853 6   
5854 4   
5855 3   
5856 3   
5857 3   
5858 4   
5859 4   
5860 1   
5861 2   
5862 1   
5863 7   
5864 4   
5865 2   
5866 1   
5867 2   
5868 8   
5869 5   
5870 3   
5871 9   
5872 1   
5873 5   
5874 8   
5875 8   
5876 9   
5877 7   
5878 8   
5879 10  
5880 5   
5881 5   
5882 8   
5883 5   
5884 1   
5885 5   
5886 2   
5887 5   
5888 7   
5889 1   
5890 10  
5891 4   
5892 4   
5893 9   
5894 9   
5895 6   
5896 6   
5897 9   
5898 1   
5899 6   
5900 2   
5901 9   
5902 7   
5903 9   
5904 2   
5905 7   
5906 3   
5907 6   
5908 6   
5909 9   
5910 3   
5911 7   
5912 2   
5913 5   
5914 9   
5915 1   
5916 5   
5917 2   
5918 2   
5919 6   
5920 3   
5921 5   
5922 4   
5923 8   
5924 8   
5925 1   
5926 1   
5927 2   
5928 1   
5929 7   
5930 5   
5931 1   
5932 1   
5933 2   
5934 6   
5935 6   
5936 1   
5937 5   
5938 5   
5939 4   
5940 8   
5941 9   
5942 7   
5943 10  
5944 3   
5945 2   
5946 3   
5947 10  
5948 10  
5949 2   
5950 1   
5951 4   
5952 3   
5953 10  
5954 6   
5955 3   
5956 1   
5957 1   
5958 7   
5959 8   
5960 3   
5961 3   
5962 2   
5963 3   
5964 7   
5965 2   
5966 6   
5967 1   
5968 7   
5969 6   
5970 10  
5971 6   
5972 2   
5973 8   
5974 1   
5975 1   
5976 8   
5977 8   
5978 4   
5979 3   
5980 7   
5981 10  
5982 5   
5983 7   
5984 3   
5985 2   
5986 9   
5987 2   
5988 1   
5989 3   
5990 3   
5991 1   
5992 10  
5993 8   
5994 10  
5995 6   
5996 7   
5997 4   
5998 6   
5999 2   
6000 5   
6001 3   
6002 2   
6003 6   
6004 4   
6005 1   
6006 2   
6007 4   
6008 6   
6009 6   
6010 3   
6011 9   
6012 6   
6013 3   
6014 6   
6015 8   
6016 1   
6017 5   
6018 7   
6019 9   
6020 5   
6021 5   
6022 9   
6023 6   
6024 9   
6025 8   
6026 9   
6027 10  
6028 8   
6029 6   
6030 8   
6031 4   
6032 8   
6033 7   
6034 6   
6035 8   
6036 5   
6037 4   
6038 8   
6039 3   
6040 4   
6041 8   
6042 1   
6043 3   
6044 3   
6045 8   
6046 1   
6047 2   
6048 2   
6049 8   
6050 10  
6051 4   
6052 7   
6053 1   
6054 9   
6055 5   
6056 5   
6057 1   
6058 4   
6059 3   
6060 4   
6061 10  
6062 7   
6063 4   
6064 10  
6065 7   
6066 2   
6067 7   
6068 7   
6069 6   
6070 2   
6071 9   
6072 3   
6073 7   
6074 5   
6075 2   
6076 9   
6077 4   
6078 7   
6079 8   
6080 7   
6081 1   
6082 2   
6083 9   
6084 9   
6085 6   
6086 1   
6087 3   
6088 2   
6089 1   
6090 10  
6091 7   
6092 8   
6093 9   
6094 9   
6095 9   
6096 4   
6097 9   
6098 6   
6099 3   
6100 1   
6101 5   
6102 1   
6103 2   
6104 7   
6105 7   
6106 7   
6107 7   
6108 7   
6109 5   
6110 6   
6111 9   
6112 10  
6113 10  
6114 7   
6115 10  
6116 1   
6117 3   
6118 3   
6119 8   
6120 7   
6121 3   
6122 2   
6123 2   
6124 7   
6125 2   
6126 3   
6127 5   
6128 2   
6129 8   
6130 1   
6131 5   
6132 5   
6133 3   
6134 5   
6135 7   
6136 2   
6137 6   
6138 7   
6139 4   
6140 1   
6141 4   
6142 3   
6143 7   
6144 4   
6145 2   
6146 2   
6147 7   
6148 7   
6149 8   
6150 1   
6151 5   
6152 8   
6153 3   
6154 3   
6155 6   
6156 9   
6157 2   
6158 9   
6159 8   
6160 3   
6161 8   
6162 10  
6163 9   
6164 3   
6165 3   
6166 5   
6167 9   
6168 7   
6169 5   
6170 1   
6171 9   
6172 3   
6173 1   
6174 7   
6175 2   
6176 1   
6177 7   
6178 9   
6179 8   
6180 7   
6181 2   
6182 7   
6183 6   
6184 3   
6185 6   
6186 9   
6187 3   
6188 6   
6189 3   
6190 3   
6191 9   
6192 10  
6193 8   
6194 8   
6195 7   
6196 3   
6197 4   
6198 5   
6199 5   
6200 7   
6201 3   
6202 10  
6203 3   
6204 6   
6205 1   
6206 5   
6207 3   
6208 7   
6209 3   
6210 5   
6211 10  
6212 3   
6213 2   
6214 7   
6215 1   
6216 5   
6217 2   
6218 4   
6219 2   
6220 10  
6221 4   
6222 1   
6223 2   
6224 5   
6225 2   
6226 9   
6227 2   
6228 2   
6229 2   
6230 4   
6231 4   
6232 8   
6233 9   
6234 3   
6235 3   
6236 9   
6237 3   
6238 7   
6239 10  
6240 6   
6241 2   
6242 6   
6243 3   
6244 6   
6245 10  
6246 8   
6247 5   
6248 2   
6249 2   
6250 7   
6251 8   
6252 7   
6253 6   
6254 10  
6255 2   
6256 7   
6257 7   
6258 10  
6259 3   
6260 10  
6261 8   
6262 5   
6263 5   
6264 4   
6265 2   
6266 4   
6267 1   
6268 6   
6269 1   
6270 9   
6271 2   
6272 2   
6273 10  
6274 6   
6275 4   
6276 5   
6277 4   
6278 6   
6279 2   
6280 3   
6281 9   
6282 8   
6283 10  
6284 5   
6285 8   
6286 10  
6287 9   
6288 5   
6289 8   
6290 8   
6291 10  
6292 8   
6293 3   
6294 1   
6295 4   
6296 6   
6297 5   
6298 9   
6299 1   
6300 4   
6301 10  
6302 9   
6303 10  
6304 4   
6305 10  
6306 10  
6307 8   
6308 8   
6309 1   
6310 2   
6311 4   
6312 2   
6313 7   
6314 8   
6315 9   
6316 6   
6317 1   
6318 2   
6319 4   
6320 9   
6321 6   
6322 6   
6323 2   
6324 8   
6325 10  
6326 6   
6327 7   
6328 1   
6329 9   
6330 7   
6331 4   
6332 4   
6333 8   
6334 4   
6335 10  
6336 8   
6337 6   
6338 6   
6339 7   
6340 10  
6341 3   
6342 8   
6343 2   
6344 1   
6345 5   
6346 6   
6347 4   
6348 4   
6349 10  
6350 8   
6351 5   
6352 9   
6353 4   
6354 8   
6355 7   
6356 3   
6357 3   
6358 3   
6359 3   
6360 3   
6361 9   
6362 2   
6363 10  
6364 6   
6365 6   
6366 3   
6367 8   
6368 5   
6369 10  
6370 10  
6371 7   
6372 9   
6373 10  
6374 3   
6375 9   
6376 2   
6377 1   
6378 5   
6379 7   
6380 4   
6381 2   
6382 3   
6383 1   
6384 3   
6385 1   
6386 9   
6387 6   
6388 3   
6389 4   
6390 8   
6391 4   
6392 10  
6393 10  
6394 6   
6395 2   
6396 3   
6397 1   
6398 3   
6399 4   
6400 2   
6401 7   
6402 4   
6403 1   
6404 4   
6405 2   
6406 8   
6407 8   
6408 9   
6409 8   
6410 7   
6411 3   
6412 6   
6413 8   
6414 7   
6415 1   
6416 10  
6417 10  
6418 9   
6419 3   
6420 7   
6421 5   
6422 7   
6423 6   
6424 4   
6425 9   
6426 10  
6427 8   
6428 5   
6429 6   
6430 9   
6431 4   
6432 6   
6433 9   
6434 3   
6435 4   
6436 4   
6437 4   
6438 8   
6439 10  
6440 10  
6441 9   
6442 10  
6443 6   
6444 6   
6445 7   
6446 3   
6447 9   
6448 5   
6449 10  
6450 5   
6451 9   
6452 10  
6453 2   
6454 5   
6455 10  
6456 5   
6457 9   
6458 1   
6459 10  
6460 10  
6461 3   
6462 5   
6463 3   
6464 9   
6465 8   
6466 1   
6467 10  
6468 6   
6469 10  
6470 10  
6471 7   
6472 8   
6473 7   
6474 2   
6475 8   
6476 7   
6477 1   
6478 4   
6479 3   
6480 9   
6481 9   
6482 3   
6483 6   
6484 5   
6485 1   
6486 8   
6487 10  
6488 4   
6489 3   
6490 1   
6491 8   
6492 7   
6493 7   
6494 8   
6495 4   
6496 4   
6497 1   
6498 6   
6499 4   
6500 1   
6501 1   
6502 9   
6503 4   
6504 6   
6505 10  
6506 9   
6507 9   
6508 2   
6509 8   
6510 9   
6511 2   
6512 10  
6513 6   
6514 2   
6515 3   
6516 9   
6517 1   
6518 8   
6519 3   
6520 9   
6521 8   
6522 2   
6523 5   
6524 3   
6525 4   
6526 3   
6527 7   
6528 7   
6529 5   
6530 5   
6531 4   
6532 5   
6533 6   
6534 10  
6535 2   
6536 2   
6537 9   
6538 9   
6539 4   
6540 5   
6541 3   
6542 10  
6543 1   
6544 8   
6545 7   
6546 6   
6547 5   
6548 8   
6549 8   
6550 8   
6551 6   
6552 10  
6553 5   
6554 2   
6555 3   
6556 3   
6557 9   
6558 9   
6559 7   
6560 6   
6561 8   
6562 7   
6563 3   
6564 4   
6565 1   
6566 3   
6567 10  
6568 4   
6569 3   
6570 6   
6571 5   
6572 9   
6573 2   
6574 2   
6575 3   
6576 2   
6577 8   
6578 4   
6579 6   
6580 3   
6581 2   
6582 7   
6583 9   
6584 4   
6585 9   
6586 1   
6587 4   
6588 5   
6589 6   
6590 5   
6591 9   
6592 6   
6593 2   
6594 3   
6595 2   
6596 1   
6597 8   
6598 4   
6599 6   
6600 2   
6601 1   
6602 3   
6603 3   
6604 10  
6605 6   
6606 7   
6607 8   
6608 1   
6609 10  
6610 5   
6611 9   
6612 6   
6613 3   
6614 9   
6615 10  
6616 8   
6617 8   
6618 8   
6619 2   
6620 9   
6621 7   
6622 8   
6623 4   
6624 7   
6625 2   
6626 3   
6627 9   
6628 6   
6629 7   
6630 2   
6631 1   
6632 10  
6633 3   
6634 1   
6635 9   
6636 9   
6637 8   
6638 4   
6639 3   
6640 4   
6641 6   
6642 8   
6643 6   
6644 5   
6645 7   
6646 1   
6647 9   
6648 5   
6649 1   
6650 9   
6651 1   
6652 7   
6653 1   
6654 9   
6655 6   
6656 3   
6657 8   
6658 10  
6659 10  
6660 9   
6661 5   
6662 1   
6663 9   
6664 10  
6665 9   
6666 9   
6667 4   
6668 5   
6669 8   
6670 7   
6671 1   
6672 1   
6673 3   
6674 7   
6675 4   
6676 2   
6677 5   
6678 5   
6679 6   
6680 7   
6681 4   
6682 2   
6683 9   
6684 1   
6685 4   
6686 2   
6687 5   
6688 9   
6689 5   
6690 4   
6691 9   
6692 6   
6693 2   
6694 1   
6695 8   
6696 1   
6697 5   
6698 9   
6699 7   
6700 1   
6701 7   
6702 10  
6703 9   
6704 4   
6705 1   
6706 2   
6707 10  
6708 5   
6709 6   
6710 6   
6711 6   
6712 8   
6713 1   
6714 4   
6715 6   
6716 2   
6717 6   
6718 3   
6719 7   
6720 7   
6721 5   
6722 9   
6723 2   
6724 4   
6725 3   
6726 10  
6727 1   
6728 6   
6729 10  
6730 7   
6731 3   
6732 9   
6733 9   
6734 2   
6735 1   
6736 10  
6737 4   
6738 4   
6739 9   
6740 2   
6741 10  
6742 9   
6743 5   
6744 5   
6745 5   
6746 2   
6747 8   
6748 3   
6749 2   
6750 7   
6751 7   
6752 1   
6753 10  
6754 8   
6755 4   
6756 9   
6757 10  
6758 7   
6759 10  
6760 5   
6761 8   
6762 3   
6763 2   
6764 10  
6765 9   
6766 1   
6767 3   
6768 2   
6769 8   
6770 3   
6771 2   
6772 1   
6773 3   
6774 10  
6775 5   
6776 8   
6777 6   
6778 10  
6779 8   
6780 4   
6781 3   
6782 3   
6783 5   
6784 9   
6785 7   
6786 3   
6787 1   
6788 1   
6789 7   
6790 2   
6791 6   
6792 7   
6793 2   
6794 2   
6795 5   
6796 4   
6797 3   
6798 1   
6799 7   
6800 2   
6801 8   
6802 6   
6803 3   
6804 9   
6805 2   
6806 4   
6807 10  
6808 3   
6809 10  
6810 8   
6811 2   
6812 8   
6813 7   
6814 2   
6815 6   
6816 1   
6817 10  
6818 7   
6819 1   
6820 4   
6821 3   
6822 8   
6823 1   
6824 4   
6825 6   
6826 6   
6827 5   
6828 8   
6829 1   
6830 5   
6831 6   
6832 3   
6833 4   
6834 4   
6835 5   
6836 9   
6837 3   
6838 1   
6839 5   
6840 6   
6841 5   
6842 5   
6843 7   
6844 2   
6845 7   
6846 10  
6847 9   
6848 7   
6849 5   
6850 5   
6851 2   
6852 9   
6853 2   
6854 3   
6855 8   
6856 8   
6857 6   
6858 6   
6859 7   
6860 7   
6861 1   
6862 2   
6863 8   
6864 5   
6865 3   
6866 9   
6867 5   
6868 4   
6869 10  
6870 4   
6871 10  
6872 8   
6873 9   
6874 5   
6875 9   
6876 8   
6877 2   
6878 7   
6879 6   
6880 7   
6881 8   
6882 2   
6883 7   
6884 2   
6885 7   
6886 2   
6887 1   
6888 2   
6889 8   
6890 7   
6891 9   
6892 6   
6893 10  
6894 8   
6895 10  
6896 2   
6897 6   
6898 5   
6899 1   
6900 7   
6901 8   
6902 10  
6903 1   
6904 9   
6905 8   
6906 6   
6907 3   
6908 4   
6909 1   
6910 2   
6911 6   
6912 3   
6913 9   
6914 1   
6915 1   
6916 1   
6917 10  
6918 9   
6919 1   
6920 9   
6921 4   
6922 4   
6923 5   
6924 3   
6925 1   
6926 9   
6927 8   
6928 2   
6929 2   
6930 9   
6931 4   
6932 6   
6933 1   
6934 3   
6935 9   
6936 3   
6937 8   
6938 9   
6939 1   
6940 5   
6941 1   
6942 3   
6943 8   
6944 7   
6945 2   
6946 5   
6947 10  
6948 2   
6949 8   
6950 8   
6951 7   
6952 7   
6953 3   
6954 1   
6955 4   
6956 7   
6957 3   
6958 9   
6959 6   
6960 3   
6961 8   
6962 2   
6963 1   
6964 1   
6965 7   
6966 8   
6967 6   
6968 7   
6969 3   
6970 10  
6971 2   
6972 6   
6973 9   
6974 8   
6975 8   
6976 1   
6977 3   
6978 1   
6979 10  
6980 5   
6981 1   
6982 1   
6983 1   
6984 8   
6985 5   
6986 7   
6987 9   
6988 6   
6989 5   
6990 4   
6991 4   
6992 3   
6993 10  
6994 5   
6995 10  
6996 4   
6997 8   
6998 10  
6999 9   
7000 6   
7001 3   
7002 1   
7003 1   
7004 5   
7005 3   
7006 6   
7007 7   
7008 1   
7009 1   
7010 8   
7011 7   
7012 1   
7013 9   
7014 7   
7015 10  
7016 5   
7017 10  
7018 4   
7019 1   
7020 4   
7021 10  
7022 7   
7023 2   
7024 3   
7025 3   
7026 4   
7027 2   
7028 3   
7029 4   
7030 8   
7031 7   
7032 5   
7033 9   
7034 8   
7035 5   
7036 10  
7037 4   
7038 3   
7039 2   
7040 6   
7041 7   
7042 10  
7043 10  
7044 4   
7045 7   
7046 7   
7047 3   
7048 1   
7049 3   
7050 8   
7051 4   
7052 5   
7053 10  
7054 7   
7055 3   
7056 4   
7057 8   
7058 5   
7059 10  
7060 1   
7061 2   
7062 7   
7063 6   
7064 2   
7065 2   
7066 6   
7067 4   
7068 4   
7069 10  
7070 5   
7071 1   
7072 8   
7073 9   
7074 4   
7075 2   
7076 9   
7077 5   
7078 9   
7079 5   
7080 8   
7081 3   
7082 3   
7083 5   
7084 2   
7085 7   
7086 9   
7087 1   
7088 8   
7089 9   
7090 9   
7091 2   
7092 1   
7093 4   
7094 4   
7095 5   
7096 3   
7097 3   
7098 10  
7099 9   
7100 9   
7101 1   
7102 10  
7103 4   
7104 6   
7105 6   
7106 1   
7107 5   
7108 10  
7109 10  
7110 5   
7111 10  
7112 6   
7113 7   
7114 5   
7115 8   
7116 3   
7117 2   
7118 8   
7119 9   
7120 4   
7121 1   
7122 8   
7123 3   
7124 6   
7125 10  
7126 2   
7127 6   
7128 10  
7129 4   
7130 6   
7131 5   
7132 8   
7133 10  
7134 7   
7135 3   
7136 2   
7137 4   
7138 2   
7139 5   
7140 5   
7141 9   
7142 7   
7143 4   
7144 6   
7145 7   
7146 3   
7147 10  
7148 1   
7149 2   
7150 1   
7151 7   
7152 10  
7153 1   
7154 6   
7155 7   
7156 9   
7157 1   
7158 4   
7159 9   
7160 2   
7161 6   
7162 9   
7163 9   
7164 7   
7165 3   
7166 7   
7167 2   
7168 10  
7169 8   
7170 1   
7171 4   
7172 6   
7173 10  
7174 9   
7175 3   
7176 5   
7177 8   
7178 8   
7179 4   
7180 3   
7181 5   
7182 7   
7183 8   
7184 1   
7185 9   
7186 3   
7187 3   
7188 2   
7189 9   
7190 5   
7191 5   
7192 7   
7193 5   
7194 8   
7195 7   
7196 8   
7197 6   
7198 8   
7199 5   
7200 8   
7201 3   
7202 5   
7203 1   
7204 5   
7205 4   
7206 7   
7207 1   
7208 9   
7209 6   
7210 1   
7211 10  
7212 5   
7213 2   
7214 10  
7215 2   
7216 7   
7217 10  
7218 2   
7219 9   
7220 5   
7221 7   
7222 5   
7223 4   
7224 5   
7225 7   
7226 5   
7227 7   
7228 7   
7229 6   
7230 1   
7231 4   
7232 10  
7233 5   
7234 7   
7235 2   
7236 1   
7237 5   
7238 9   
7239 1   
7240 2   
7241 1   
7242 9   
7243 4   
7244 4   
7245 7   
7246 6   
7247 7   
7248 1   
7249 3   
7250 7   
7251 1   
7252 4   
7253 6   
7254 8   
7255 9   
7256 10  
7257 8   
7258 9   
7259 1   
7260 2   
7261 6   
7262 6   
7263 5   
7264 4   
7265 4   
7266 9   
7267 3   
7268 6   
7269 5   
7270 10  
7271 8   
7272 8   
7273 9   
7274 4   
7275 9   
7276 7   
7277 3   
7278 1   
7279 1   
7280 10  
7281 4   
7282 3   
7283 2   
7284 8   
7285 3   
7286 2   
7287 8   
7288 2   
7289 5   
7290 9   
7291 2   
7292 7   
7293 5   
7294 7   
7295 6   
7296 8   
7297 2   
7298 1   
7299 3   
7300 2   
7301 7   
7302 8   
7303 1   
7304 2   
7305 2   
7306 9   
7307 8   
7308 6   
7309 4   
7310 6   
7311 4   
7312 6   
7313 6   
7314 1   
7315 9   
7316 9   
7317 2   
7318 7   
7319 10  
7320 2   
7321 9   
7322 2   
7323 7   
7324 3   
7325 9   
7326 7   
7327 7   
7328 1   
7329 7   
7330 9   
7331 8   
7332 7   
7333 9   
7334 9   
7335 9   
7336 2   
7337 1   
7338 5   
7339 10  
7340 3   
7341 1   
7342 6   
7343 7   
7344 1   
7345 3   
7346 10  
7347 2   
7348 8   
7349 4   
7350 5   
7351 7   
7352 6   
7353 7   
7354 2   
7355 1   
7356 1   
7357 5   
7358 8   
7359 1   
7360 2   
7361 7   
7362 5   
7363 1   
7364 7   
7365 4   
7366 1   
7367 4   
7368 5   
7369 4   
7370 2   
7371 4   
7372 1   
7373 10  
7374 3   
7375 5   
7376 7   
7377 8   
7378 5   
7379 6   
7380 9   
7381 4   
7382 8   
7383 5   
7384 6   
7385 9   
7386 1   
7387 2   
7388 1   
7389 10  
7390 6   
7391 1   
7392 6   
7393 7   
7394 5   
7395 4   
7396 3   
7397 1   
7398 1   
7399 4   
7400 4   
7401 5   
7402 2   
7403 7   
7404 6   
7405 4   
7406 2   
7407 9   
7408 1   
7409 2   
7410 8   
7411 3   
7412 10  
7413 6   
7414 5   
7415 1   
7416 10  
7417 2   
7418 6   
7419 7   
7420 5   
7421 2   
7422 8   
7423 4   
7424 4   
7425 4   
7426 1   
7427 10  
7428 3   
7429 5   
7430 5   
7431 2   
7432 5   
7433 4   
7434 2   
7435 1   
7436 9   
7437 3   
7438 5   
7439 9   
7440 1   
7441 9   
7442 4   
7443 8   
7444 8   
7445 2   
7446 1   
7447 5   
7448 4   
7449 5   
7450 10  
7451 5   
7452 4   
7453 3   
7454 4   
7455 8   
7456 2   
7457 1   
7458 9   
7459 8   
7460 1   
7461 2   
7462 4   
7463 1   
7464 9   
7465 3   
7466 1   
7467 6   
7468 10  
7469 10  
7470 6   
7471 6   
7472 4   
7473 8   
7474 6   
7475 2   
7476 7   
7477 1   
7478 4   
7479 8   
7480 2   
7481 5   
7482 6   
7483 7   
7484 3   
7485 3   
7486 3   
7487 3   
7488 2   
7489 6   
7490 4   
7491 8   
7492 5   
7493 6   
7494 1   
7495 8   
7496 5   
7497 8   
7498 2   
7499 8   
7500 10  
7501 10  
7502 4   
7503 3   
7504 3   
7505 8   
7506 8   
7507 5   
7508 10  
7509 2   
7510 8   
7511 2   
7512 9   
7513 6   
7514 4   
7515 1   
7516 5   
7517 3   
7518 2   
7519 6   
7520 6   
7521 5   
7522 4   
7523 9   
7524 5   
7525 3   
7526 1   
7527 7   
7528 4   
7529 4   
7530 2   
7531 7   
7532 5   
7533 6   
7534 7   
7535 8   
7536 6   
7537 9   
7538 3   
7539 5   
7540 8   
7541 9   
7542 7   
7543 2   
7544 2   
7545 5   
7546 8   
7547 3   
7548 1   
7549 9   
7550 5   
7551 5   
7552 6   
7553 6   
7554 4   
7555 5   
7556 2   
7557 7   
7558 6   
7559 8   
7560 4   
7561 7   
7562 6   
7563 1   
7564 1   
7565 10  
7566 5   
7567 5   
7568 2   
7569 8   
7570 4   
7571 9   
7572 4   
7573 8   
7574 1   
7575 1   
7576 5   
7577 10  
7578 2   
7579 2   
7580 10  
7581 4   
7582 8   
7583 3   
7584 7   
7585 4   
7586 5   
7587 4   
7588 3   
7589 8   
7590 1   
7591 2   
7592 10  
7593 2   
7594 6   
7595 4   
7596 6   
7597 4   
7598 2   
7599 7   
7600 9   
7601 1   
7602 6   
7603 9   
7604 8   
7605 5   
7606 7   
7607 6   
7608 9   
7609 5   
7610 2   
7611 4   
7612 10  
7613 5   
7614 2   
7615 4   
7616 2   
7617 4   
7618 7   
7619 1   
7620 10  
7621 2   
7622 9   
7623 4   
7624 2   
7625 4   
7626 5   
7627 9   
7628 4   
7629 10  
7630 4   
7631 3   
7632 6   
7633 1   
7634 7   
7635 4   
7636 5   
7637 2   
7638 2   
7639 7   
7640 3   
7641 5   
7642 1   
7643 2   
7644 2   
7645 10  
7646 9   
7647 3   
7648 3   
7649 1   
7650 2   
7651 5   
7652 7   
7653 3   
7654 5   
7655 8   
7656 1   
7657 2   
7658 9   
7659 1   
7660 4   
7661 10  
7662 3   
7663 9   
7664 6   
7665 6   
7666 4   
7667 8   
7668 9   
7669 8   
7670 3   
7671 10  
7672 9   
7673 1   
7674 10  
7675 5   
7676 4   
7677 8   
7678 2   
7679 1   
7680 6   
7681 10  
7682 3   
7683 6   
7684 4   
7685 8   
7686 8   
7687 6   
7688 1   
7689 10  
7690 6   
7691 1   
7692 9   
7693 7   
7694 4   
7695 2   
7696 4   
7697 1   
7698 6   
7699 8   
7700 7   
7701 7   
7702 1   
7703 2   
7704 8   
7705 10  
7706 5   
7707 9   
7708 9   
7709 9   
7710 4   
7711 8   
7712 7   
7713 7   
7714 7   
7715 3   
7716 1   
7717 9   
7718 2   
7719 4   
7720 3   
7721 2   
7722 4   
7723 6   
7724 10  
7725 2   
7726 10  
7727 7   
7728 6   
7729 1   
7730 1   
7731 10  
7732 3   
7733 8   
7734 4   
7735 7   
7736 7   
7737 1   
7738 4   
7739 10  
7740 10  
7741 2   
7742 3   
7743 6   
7744 4   
7745 3   
7746 3   
7747 10  
7748 7   
7749 10  
7750 8   
7751 10  
7752 9   
7753 6   
7754 10  
7755 9   
7756 3   
7757 4   
7758 2   
7759 2   
7760 6   
7761 6   
7762 9   
7763 4   
7764 1   
7765 1   
7766 8   
7767 9   
7768 10  
7769 2   
7770 5   
7771 9   
7772 5   
7773 1   
7774 1   
7775 2   
7776 10  
7777 8   
7778 6   
7779 6   
7780 5   
7781 6   
7782 7   
7783 7   
7784 10  
7785 6   
7786 1   
7787 10  
7788 9   
7789 1   
7790 1   
7791 10  
7792 1   
7793 4   
7794 9   
7795 10  
7796 6   
7797 5   
7798 8   
7799 10  
7800 1   
7801 3   
7802 2   
7803 2   
7804 9   
7805 2   
7806 2   
7807 9   
7808 1   
7809 6   
7810 2   
7811 10  
7812 3   
7813 10  
7814 4   
7815 8   
7816 9   
7817 4   
7818 10  
7819 8   
7820 8   
7821 7   
7822 10  
7823 2   
7824 4   
7825 5   
7826 10  
7827 8   
7828 8   
7829 7   
7830 8   
7831 7   
7832 8   
7833 2   
7834 8   
7835 4   
7836 10  
7837 9   
7838 9   
7839 8   
7840 7   
7841 6   
7842 6   
7843 4   
7844 3   
7845 10  
7846 10  
7847 5   
7848 10  
7849 5   
7850 9   
7851 3   
7852 9   
7853 2   
7854 9   
7855 2   
7856 4   
7857 2   
7858 1   
7859 4   
7860 8   
7861 6   
7862 6   
7863 9   
7864 10  
7865 3   
7866 5   
7867 7   
7868 7   
7869 9   
7870 1   
7871 7   
7872 4   
7873 6   
7874 1   
7875 1   
7876 8   
7877 8   
7878 7   
7879 6   
7880 1   
7881 4   
7882 9   
7883 7   
7884 8   
7885 1   
7886 2   
7887 1   
7888 10  
7889 5   
7890 10  
7891 9   
7892 6   
7893 3   
7894 4   
7895 3   
7896 1   
7897 3   
7898 7   
7899 4   
7900 3   
7901 4   
7902 10  
7903 1   
7904 8   
7905 10  
7906 10  
7907 5   
7908 10  
7909 8   
7910 10  
7911 5   
7912 6   
7913 9   
7914 5   
7915 4   
7916 3   
7917 4   
7918 7   
7919 6   
7920 6   
7921 1   
7922 2   
7923 5   
7924 10  
7925 1   
7926 4   
7927 2   
7928 8   
7929 7   
7930 9   
7931 6   
7932 2   
7933 5   
7934 10  
7935 1   
7936 9   
7937 1   
7938 3   
7939 8   
7940 10  
7941 9   
7942 2   
7943 3   
7944 3   
7945 3   
7946 4   
7947 10  
7948 8   
7949 4   
7950 9   
7951 8   
7952 9   
7953 10  
7954 6   
7955 6   
7956 5   
7957 10  
7958 4   
7959 10  
7960 5   
7961 1   
7962 8   
7963 1   
7964 7   
7965 7   
7966 6   
7967 3   
7968 1   
7969 9   
7970 9   
7971 1   
7972 2   
7973 9   
7974 10  
7975 3   
7976 10  
7977 6   
7978 9   
7979 1   
7980 10  
7981 10  
7982 3   
7983 3   
7984 6   
7985 8   
7986 5   
7987 9   
7988 8   
7989 4   
7990 1   
7991 3   
7992 4   
7993 9   
7994 4   
7995 6   
7996 10  
7997 4   
7998 10  
7999 4   
8000 3   
8001 8   
8002 2   
8003 7   
8004 6   
8005 4   
8006 5   
8007 5   
8008 5   
8009 8   
8010 10  
8011 10  
8012 9   
8013 8   
8014 6   
8015 6   
8016 8   
8017 4   
8018 3   
8019 7   
8020 5   
8021 7   
8022 7   
8023 2   
8024 10  
8025 4   
8026 9   
8027 4   
8028 2   
8029 3   
8030 3   
8031 10  
8032 2   
8033 2   
8034 7   
8035 1   
8036 1   
8037 4   
8038 4   
8039 6   
8040 9   
8041 7   
8042 7   
8043 1   
8044 10  
8045 9   
8046 7   
8047 10  
8048 2   
8049 7   
8050 2   
8051 4   
8052 9   
8053 5   
8054 3   
8055 2   
8056 2   
8057 6   
8058 3   
8059 8   
8060 4   
8061 3   
8062 1   
8063 5   
8064 6   
8065 9   
8066 3   
8067 10  
8068 6   
8069 1   
8070 3   
8071 8   
8072 1   
8073 4   
8074 3   
8075 6   
8076 6   
8077 4   
8078 4   
8079 6   
8080 7   
8081 4   
8082 1   
8083 1   
8084 5   
8085 5   
8086 4   
8087 3   
8088 4   
8089 1   
8090 3   
8091 9   
8092 3   
8093 2   
8094 9   
8095 8   
8096 9   
8097 2   
8098 6   
8099 2   
8100 2   
8101 2   
8102 10  
8103 8   
8104 7   
8105 5   
8106 1   
8107 7   
8108 1   
8109 5   
8110 3   
8111 8   
8112 4   
8113 4   
8114 10  
8115 5   
8116 3   
8117 6   
8118 7   
8119 6   
8120 2   
8121 1   
8122 4   
8123 4   
8124 8   
8125 10  
8126 4   
8127 7   
8128 2   
8129 8   
8130 7   
8131 10  
8132 2   
8133 5   
8134 10  
8135 6   
8136 9   
8137 9   
8138 8   
8139 1   
8140 9   
8141 2   
8142 2   
8143 4   
8144 7   
8145 4   
8146 4   
8147 5   
8148 2   
8149 9   
8150 10  
8151 5   
8152 10  
8153 4   
8154 8   
8155 8   
8156 6   
8157 1   
8158 5   
8159 6   
8160 8   
8161 8   
8162 4   
8163 1   
8164 6   
8165 5   
8166 3   
8167 10  
8168 4   
8169 4   
8170 4   
8171 8   
8172 10  
8173 9   
8174 6   
8175 2   
8176 2   
8177 7   
8178 9   
8179 5   
8180 5   
8181 10  
8182 8   
8183 3   
8184 9   
8185 10  
8186 6   
8187 8   
8188 7   
8189 3   
8190 8   
8191 3   
8192 8   
8193 10  
8194 6   
8195 8   
8196 6   
8197 8   
8198 7   
8199 10  
8200 3   
8201 8   
8202 10  
8203 3   
8204 1   
8205 7   
8206 6   
8207 4   
8208 4   
8209 5   
8210 5   
8211 7   
8212 1   
8213 4   
8214 10  
8215 4   
8216 1   
8217 10  
8218 3   
8219 7   
8220 6   
8221 10  
8222 4   
8223 7   
8224 3   
8225 3   
8226 8   
8227 6   
8228 3   
8229 7   
8230 1   
8231 9   
8232 9   
8233 6   
8234 2   
8235 1   
8236 9   
8237 4   
8238 7   
8239 2   
8240 3   
8241 5   
8242 7   
8243 8   
8244 5   
8245 8   
8246 9   
8247 7   
8248 8   
8249 8   
8250 1   
8251 7   
8252 8   
8253 9   
8254 7   
8255 8   
8256 7   
8257 8   
8258 9   
8259 6   
8260 3   
8261 5   
8262 3   
8263 10  
8264 9   
8265 4   
8266 1   
8267 6   
8268 1   
8269 8   
8270 6   
8271 6   
8272 6   
8273 1   
8274 10  
8275 8   
8276 2   
8277 6   
8278 4   
8279 7   
8280 9   
8281 8   
8282 4   
8283 5   
8284 9   
8285 2   
8286 4   
8287 5   
8288 5   
8289 8   
8290 10  
8291 2   
8292 2   
8293 3   
8294 3   
8295 6   
8296 2   
8297 8   
8298 6   
8299 4   
8300 4   
8301 1   
8302 5   
8303 10  
8304 7   
8305 3   
8306 9   
8307 6   
8308 2   
8309 6   
8310 6   
8311 7   
8312 5   
8313 4   
8314 3   
8315 5   
8316 8   
8317 5   
8318 6   
8319 9   
8320 2   
8321 6   
8322 6   
8323 8   
8324 8   
8325 9   
8326 4   
8327 4   
8328 2   
8329 7   
8330 2   
8331 10  
8332 8   
8333 7   
8334 9   
8335 8   
8336 7   
8337 10  
8338 3   
8339 6   
8340 4   
8341 9   
8342 5   
8343 4   
8344 9   
8345 4   
8346 10  
8347 2   
8348 6   
8349 4   
8350 2   
8351 4   
8352 8   
8353 6   
8354 7   
8355 8   
8356 6   
8357 5   
8358 8   
8359 9   
8360 5   
8361 3   
8362 2   
8363 2   
8364 6   
8365 5   
8366 6   
8367 3   
8368 9   
8369 9   
8370 4   
8371 4   
8372 10  
8373 7   
8374 1   
8375 10  
8376 4   
8377 10  
8378 3   
8379 7   
8380 10  
8381 3   
8382 7   
8383 1   
8384 9   
8385 1   
8386 9   
8387 10  
8388 4   
8389 2   
8390 10  
8391 5   
8392 2   
8393 2   
8394 3   
8395 10  
8396 2   
8397 9   
8398 9   
8399 3   
8400 6   
8401 1   
8402 7   
8403 3   
8404 1   
8405 1   
8406 5   
8407 4   
8408 4   
8409 1   
8410 6   
8411 8   
8412 9   
8413 5   
8414 10  
8415 8   
8416 8   
8417 9   
8418 5   
8419 7   
8420 8   
8421 2   
8422 1   
8423 3   
8424 4   
8425 5   
8426 3   
8427 2   
8428 2   
8429 3   
8430 3   
8431 2   
8432 7   
8433 4   
8434 6   
8435 3   
8436 5   
8437 4   
8438 5   
8439 10  
8440 4   
8441 10  
8442 6   
8443 7   
8444 2   
8445 1   
8446 9   
8447 1   
8448 5   
8449 1   
8450 4   
8451 9   
8452 6   
8453 4   
8454 10  
8455 8   
8456 4   
8457 10  
8458 2   
8459 5   
8460 2   
8461 3   
8462 6   
8463 4   
8464 2   
8465 5   
8466 3   
8467 4   
8468 4   
8469 3   
8470 4   
8471 2   
8472 7   
8473 9   
8474 5   
8475 7   
8476 1   
8477 10  
8478 2   
8479 3   
8480 4   
8481 1   
8482 1   
8483 6   
8484 4   
8485 2   
8486 5   
8487 7   
8488 10  
8489 9   
8490 2   
8491 7   
8492 10  
8493 5   
8494 6   
8495 4   
8496 7   
8497 1   
8498 4   
8499 9   
8500 4   
8501 4   
8502 2   
8503 2   
8504 1   
8505 7   
8506 4   
8507 9   
8508 10  
8509 7   
8510 10  
8511 3   
8512 6   
8513 2   
8514 10  
8515 4   
8516 9   
8517 9   
8518 8   
8519 1   
8520 1   
8521 10  
8522 8   
8523 9   
8524 9   
8525 6   
8526 7   
8527 9   
8528 7   
8529 1   
8530 4   
8531 1   
8532 3   
8533 5   
8534 3   
8535 8   
8536 3   
8537 6   
8538 10  
8539 9   
8540 5   
8541 2   
8542 6   
8543 9   
8544 9   
8545 7   
8546 3   
8547 6   
8548 1   
8549 6   
8550 6   
8551 7   
8552 1   
8553 1   
8554 1   
8555 6   
8556 7   
8557 8   
8558 2   
8559 6   
8560 6   
8561 5   
8562 7   
8563 8   
8564 3   
8565 5   
8566 6   
8567 2   
8568 7   
8569 2   
8570 5   
8571 9   
8572 2   
8573 6   
8574 3   
8575 4   
8576 8   
8577 3   
8578 6   
8579 7   
8580 1   
8581 2   
8582 4   
8583 6   
8584 6   
8585 10  
8586 10  
8587 2   
8588 1   
8589 1   
8590 9   
8591 5   
8592 6   
8593 3   
8594 8   
8595 5   
8596 4   
8597 4   
8598 2   
8599 10  
8600 4   
8601 10  
8602 3   
8603 9   
8604 10  
8605 6   
8606 1   
8607 8   
8608 1   
8609 4   
8610 6   
8611 10  
8612 3   
8613 10  
8614 5   
8615 3   
8616 5   
8617 6   
8618 2   
8619 1   
8620 4   
8621 3   
8622 5   
8623 7   
8624 1   
8625 5   
8626 4   
8627 6   
8628 10  
8629 8   
8630 7   
8631 9   
8632 4   
8633 3   
8634 4   
8635 6   
8636 7   
8637 6   
8638 3   
8639 2   
8640 8   
8641 1   
8642 10  
8643 6   
8644 4   
8645 5   
8646 9   
8647 10  
8648 9   
8649 3   
8650 9   
8651 5   
8652 1   
8653 3   
8654 9   
8655 9   
8656 9   
8657 6   
8658 3   
8659 6   
8660 3   
8661 6   
8662 6   
8663 7   
8664 4   
8665 6   
8666 7   
8667 4   
8668 5   
8669 10  
8670 4   
8671 6   
8672 5   
8673 5   
8674 8   
8675 10  
8676 9   
8677 6   
8678 10  
8679 4   
8680 3   
8681 3   
8682 4   
8683 10  
8684 8   
8685 10  
8686 6   
8687 6   
8688 3   
8689 8   
8690 5   
8691 6   
8692 8   
8693 10  
8694 6   
8695 7   
8696 3   
8697 10  
8698 5   
8699 3   
8700 6   
8701 1   
8702 4   
8703 10  
8704 6   
8705 8   
8706 3   
8707 3   
8708 10  
8709 4   
8710 8   
8711 10  
8712 7   
8713 2   
8714 1   
8715 4   
8716 8   
8717 2   
8718 2   
8719 7   
8720 7   
8721 9   
8722 9   
8723 4   
8724 9   
8725 2   
8726 6   
8727 8   
8728 3   
8729 10  
8730 1   
8731 8   
8732 8   
8733 8   
8734 3   
8735 9   
8736 3   
8737 8   
8738 2   
8739 1   
8740 9   
8741 1   
8742 3   
8743 4   
8744 10  
8745 10  
8746 3   
8747 4   
8748 7   
8749 2   
8750 7   
8751 3   
8752 4   
8753 3   
8754 10  
8755 3   
8756 6   
8757 2   
8758 7   
8759 5   
8760 5   
8761 5   
8762 5   
8763 1   
8764 3   
8765 3   
8766 4   
8767 3   
8768 10  
8769 8   
8770 6   
8771 8   
8772 10  
8773 6   
8774 4   
8775 3   
8776 8   
8777 5   
8778 4   
8779 4   
8780 5   
8781 9   
8782 5   
8783 8   
8784 8   
8785 9   
8786 4   
8787 2   
8788 5   
8789 2   
8790 3   
8791 5   
8792 2   
8793 4   
8794 10  
8795 3   
8796 8   
8797 7   
8798 5   
8799 9   
8800 8   
8801 10  
8802 4   
8803 10  
8804 7   
8805 4   
8806 4   
8807 2   
8808 10  
8809 10  
8810 4   
8811 5   
8812 9   
8813 7   
8814 2   
8815 7   
8816 6   
8817 5   
8818 7   
8819 5   
8820 8   
8821 9   
8822 7   
8823 5   
8824 10  
8825 8   
8826 1   
8827 6   
8828 1   
8829 9   
8830 4   
8831 3   
8832 3   
8833 8   
8834 4   
8835 2   
8836 7   
8837 10  
8838 1   
8839 4   
8840 5   
8841 4   
8842 3   
8843 1   
8844 10  
8845 6   
8846 9   
8847 1   
8848 8   
8849 7   
8850 2   
8851 3   
8852 1   
8853 4   
8854 2   
8855 9   
8856 7   
8857 3   
8858 3   
8859 3   
8860 10  
8861 6   
8862 8   
8863 2   
8864 2   
8865 5   
8866 3   
8867 2   
8868 5   
8869 5   
8870 1   
8871 2   
8872 3   
8873 1   
8874 3   
8875 7   
8876 8   
8877 3   
8878 7   
8879 9   
8880 4   
8881 6   
8882 2   
8883 1   
8884 4   
8885 6   
8886 6   
8887 3   
8888 2   
8889 3   
8890 9   
8891 3   
8892 4   
8893 2   
8894 3   
8895 2   
8896 3   
8897 1   
8898 10  
8899 5   
8900 2   
8901 5   
8902 9   
8903 8   
8904 5   
8905 8   
8906 2   
8907 9   
8908 1   
8909 5   
8910 3   
8911 10  
8912 7   
8913 6   
8914 8   
8915 6   
8916 8   
8917 9   
8918 10  
8919 5   
8920 2   
8921 7   
8922 7   
8923 1   
8924 7   
8925 10  
8926 2   
8927 7   
8928 6   
8929 9   
8930 8   
8931 7   
8932 6   
8933 2   
8934 10  
8935 1   
8936 7   
8937 2   
8938 8   
8939 9   
8940 5   
8941 8   
8942 10  
8943 6   
8944 7   
8945 4   
8946 2   
8947 7   
8948 6   
8949 6   
8950 3   
8951 7   
8952 9   
8953 3   
8954 4   
8955 1   
8956 3   
8957 4   
8958 5   
8959 7   
8960 8   
8961 9   
8962 8   
8963 7   
8964 3   
8965 4   
8966 5   
8967 10  
8968 3   
8969 10  
8970 7   
8971 9   
8972 5   
8973 5   
8974 3   
8975 4   
8976 8   
8977 2   
8978 8   
8979 5   
8980 5   
8981 2   
8982 10  
8983 1   
8984 5   
8985 3   
8986 7   
8987 2   
8988 6   
8989 9   
8990 7   
8991 7   
8992 9   
8993 7   
8994 10  
8995 6   
8996 2   
8997 9   
8998 8   
8999 10  
9000 8   
9001 2   
9002 10  
9003 3   
9004 10  
9005 7   
9006 6   
9007 2   
9008 8   
9009 5   
9010 4   
9011 8   
9012 6   
9013 2   
9014 7   
9015 3   
9016 5   
9017 2   
9018 6   
9019 7   
9020 1   
9021 3   
9022 9   
9023 8   
9024 3   
9025 10  
9026 8   
9027 6   
9028 1   
9029 4   
9030 4   
9031 1   
9032 2   
9033 7   
9034 1   
9035 1   
9036 9   
9037 9   
9038 4   
9039 5   
9040 3   
9041 6   
9042 9   
9043 2   
9044 4   
9045 4   
9046 2   
9047 4   
9048 1   
9049 9   
9050 10  
9051 2   
9052 8   
9053 4   
9054 5   
9055 3   
9056 3   
9057 6   
9058 9   
9059 5   
9060 10  
9061 10  
9062 9   
9063 9   
9064 10  
9065 1   
9066 5   
9067 3   
9068 3   
9069 8   
9070 4   
9071 6   
9072 7   
9073 8   
9074 6   
9075 7   
9076 4   
9077 10  
9078 5   
9079 4   
9080 2   
9081 4   
9082 5   
9083 6   
9084 9   
9085 9   
9086 2   
9087 1   
9088 4   
9089 5   
9090 7   
9091 3   
9092 10  
9093 5   
9094 2   
9095 3   
9096 2   
9097 4   
9098 6   
9099 8   
9100 1   
9101 1   
9102 3   
9103 6   
9104 6   
9105 4   
9106 6   
9107 4   
9108 9   
9109 6   
9110 10  
9111 1   
9112 2   
9113 10  
9114 4   
9115 9   
9116 1   
9117 8   
9118 2   
9119 4   
9120 1   
9121 5   
9122 9   
9123 4   
9124 8   
9125 4   
9126 3   
9127 5   
9128 9   
9129 5   
9130 6   
9131 10  
9132 3   
9133 3   
9134 9   
9135 3   
9136 8   
9137 10  
9138 5   
9139 1   
9140 2   
9141 1   
9142 1   
9143 8   
9144 9   
9145 10  
9146 3   
9147 2   
9148 1   
9149 2   
9150 8   
9151 2   
9152 5   
9153 10  
9154 2   
9155 3   
9156 6   
9157 5   
9158 3   
9159 10  
9160 2   
9161 2   
9162 8   
9163 3   
9164 5   
9165 9   
9166 4   
9167 9   
9168 1   
9169 2   
9170 10  
9171 8   
9172 5   
9173 6   
9174 8   
9175 8   
9176 3   
9177 8   
9178 7   
9179 6   
9180 6   
9181 7   
9182 3   
9183 6   
9184 6   
9185 1   
9186 5   
9187 7   
9188 6   
9189 5   
9190 6   
9191 8   
9192 9   
9193 8   
9194 3   
9195 6   
9196 2   
9197 9   
9198 9   
9199 5   
9200 7   
9201 2   
9202 7   
9203 9   
9204 6   
9205 2   
9206 4   
9207 3   
9208 3   
9209 1   
9210 5   
9211 1   
9212 7   
9213 3   
9214 10  
9215 7   
9216 6   
9217 10  
9218 4   
9219 10  
9220 10  
9221 2   
9222 10  
9223 3   
9224 3   
9225 2   
9226 3   
9227 7   
9228 3   
9229 5   
9230 6   
9231 10  
9232 5   
9233 1   
9234 5   
9235 2   
9236 7   
9237 7   
9238 9   
9239 6   
9240 7   
9241 4   
9242 2   
9243 10  
9244 5   
9245 7   
9246 9   
9247 4   
9248 1   
9249 4   
9250 3   
9251 4   
9252 10  
9253 10  
9254 8   
9255 1   
9256 3   
9257 4   
9258 5   
9259 8   
9260 7   
9261 7   
9262 4   
9263 4   
9264 4   
9265 2   
9266 6   
9267 10  
9268 1   
9269 2   
9270 9   
9271 4   
9272 9   
9273 7   
9274 1   
9275 2   
9276 9   
9277 8   
9278 4   
9279 2   
9280 1   
9281 9   
9282 2   
9283 6   
9284 9   
9285 4   
9286 2   
9287 7   
9288 2   
9289 7   
9290 8   
9291 6   
9292 9   
9293 6   
9294 10  
9295 4   
9296 7   
9297 4   
9298 4   
9299 1   
9300 6   
9301 4   
9302 7   
9303 1   
9304 10  
9305 8   
9306 7   
9307 2   
9308 10  
9309 2   
9310 2   
9311 5   
9312 9   
9313 2   
9314 8   
9315 6   
9316 1   
9317 7   
9318 4   
9319 1   
9320 6   
9321 8   
9322 2   
9323 2   
9324 3   
9325 6   
9326 5   
9327 8   
9328 8   
9329 7   
9330 2   
9331 8   
9332 10  
9333 5   
9334 1   
9335 7   
9336 7   
9337 6   
9338 6   
9339 7   
9340 1   
9341 7   
9342 9   
9343 4   
9344 5   
9345 10  
9346 2   
9347 6   
9348 4   
9349 3   
9350 1   
9351 9   
9352 4   
9353 7   
9354 9   
9355 10  
9356 9   
9357 10  
9358 7   
9359 7   
9360 2   
9361 3   
9362 9   
9363 2   
9364 2   
9365 3   
9366 8   
9367 3   
9368 8   
9369 1   
9370 8   
9371 3   
9372 2   
9373 2   
9374 1   
9375 10  
9376 10  
9377 3   
9378 8   
9379 10  
9380 1   
9381 8   
9382 2   
9383 6   
9384 6   
9385 5   
9386 8   
9387 10  
9388 6   
9389 5   
9390 3   
9391 5   
9392 8   
9393 8   
9394 1   
9395 3   
9396 9   
9397 7   
9398 1   
9399 5   
9400 8   
9401 1   
9402 2   
9403 9   
9404 3   
9405 10  
9406 3   
9407 9   
9408 10  
9409 4   
9410 9   
9411 2   
9412 2   
9413 3   
9414 6   
9415 1   
9416 1   
9417 6   
9418 9   
9419 3   
9420 6   
9421 1   
9422 5   
9423 7   
9424 5   
9425 2   
9426 4   
9427 2   
9428 5   
9429 3   
9430 9   
9431 1   
9432 3   
9433 4   
9434 5   
9435 3   
9436 8   
9437 2   
9438 2   
9439 8   
9440 6   
9441 1   
9442 5   
9443 5   
9444 9   
9445 8   
9446 6   
9447 4   
9448 4   
9449 9   
9450 8   
9451 8   
9452 6   
9453 10  
9454 8   
9455 2   
9456 2   
9457 5   
9458 7   
9459 9   
9460 9   
9461 4   
9462 2   
9463 1   
9464 6   
9465 4   
9466 1   
9467 6   
9468 8   
9469 5   
9470 6   
9471 2   
9472 4   
9473 2   
9474 9   
9475 9   
9476 4   
9477 1   
9478 3   
9479 9   
9480 10  
9481 1   
9482 2   
9483 10  
9484 9   
9485 2   
9486 3   
9487 7   
9488 1   
9489 1   
9490 1   
9491 9   
9492 7   
9493 6   
9494 8   
9495 9   
9496 7   
9497 1   
9498 10  
9499 7   
9500 6   
9501 6   
9502 5   
9503 5   
9504 8   
9505 5   
9506 10  
9507 8   
9508 9   
9509 8   
9510 8   
9511 4   
9512 5   
9513 6   
9514 2   
9515 3   
9516 3   
9517 2   
9518 7   
9519 1   
9520 2   
9521 4   
9522 8   
9523 6   
9524 8   
9525 1   
9526 4   
9527 9   
9528 1   
9529 7   
9530 2   
9531 4   
9532 8   
9533 3   
9534 8   
9535 2   
9536 7   
9537 9   
9538 5   
9539 4   
9540 4   
9541 6   
9542 3   
9543 9   
9544 10  
9545 10  
9546 8   
9547 6   
9548 9   
9549 4   
9550 2   
9551 5   
9552 4   
9553 9   
9554 2   
9555 1   
9556 9   
9557 6   
9558 7   
9559 5   
9560 3   
9561 3   
9562 4   
9563 7   
9564 2   
9565 7   
9566 10  
9567 3   
9568 4   
9569 2   
9570 3   
9571 9   
9572 2   
9573 8   
9574 10  
9575 5   
9576 4   
9577 2   
9578 1   
9579 10  
9580 2   
9581 4   
9582 2   
9583 10  
9584 9   
9585 5   
9586 6   
9587 2   
9588 10  
9589 3   
9590 4   
9591 10  
9592 2   
9593 2   
9594 4   
9595 2   
9596 8   
9597 10  
9598 6   
9599 6   
9600 9   
9601 7   
9602 3   
9603 2   
9604 4   
9605 5   
9606 7   
9607 6   
9608 5   
9609 5   
9610 1   
9611 5   
9612 9   
9613 7   
9614 10  
9615 7   
9616 1   
9617 4   
9618 8   
9619 6   
9620 7   
9621 8   
9622 6   
9623 4   
9624 1   
9625 3   
9626 8   
9627 2   
9628 8   
9629 8   
9630 8   
9631 5   
9632 3   
9633 6   
9634 6   
9635 7   
9636 6   
9637 10  
9638 8   
9639 9   
9640 2   
9641 2   
9642 4   
9643 7   
9644 1   
9645 9   
9646 4   
9647 10  
9648 3   
9649 6   
9650 6   
9651 9   
9652 2   
9653 5   
9654 5   
9655 7   
9656 1   
9657 5   
9658 7   
9659 2   
9660 10  
9661 6   
9662 3   
9663 9   
9664 9   
9665 10  
9666 1   
9667 7   
9668 10  
9669 4   
9670 3   
9671 7   
9672 8   
9673 9   
9674 3   
9675 6   
9676 3   
9677 4   
9678 8   
9679 4   
9680 5   
9681 1   
9682 1   
9683 2   
9684 7   
9685 10  
9686 2   
9687 7   
9688 4   
9689 5   
9690 5   
9691 9   
9692 9   
9693 7   
9694 9   
9695 1   
9696 6   
9697 2   
9698 8   
9699 7   
9700 9   
9701 2   
9702 5   
9703 3   
9704 2   
9705 1   
9706 3   
9707 2   
9708 2   
9709 1   
9710 6   
9711 1   
9712 2   
9713 9   
9714 4   
9715 6   
9716 5   
9717 10  
9718 9   
9719 6   
9720 5   
9721 5   
9722 10  
9723 3   
9724 5   
9725 5   
9726 6   
9727 4   
9728 7   
9729 10  
9730 10  
9731 1   
9732 1   
9733 1   
9734 5   
9735 7   
9736 9   
9737 7   
9738 10  
9739 1   
9740 3   
9741 4   
9742 1   
9743 5   
9744 7   
9745 6   
9746 2   
9747 9   
9748 4   
9749 7   
9750 6   
9751 7   
9752 6   
9753 3   
9754 4   
9755 9   
9756 4   
9757 4   
9758 3   
9759 6   
9760 9   
9761 8   
9762 7   
9763 7   
9764 3   
9765 4   
9766 2   
9767 10  
9768 4   
9769 1   
9770 9   
9771 6   
9772 2   
9773 1   
9774 10  
9775 10  
9776 5   
9777 9   
9778 6   
9779 9   
9780 3   
9781 2   
9782 1   
9783 2   
9784 2   
9785 1   
9786 1   
9787 9   
9788 2   
9789 5   
9790 8   
9791 8   
9792 4   
9793 4   
9794 8   
9795 5   
9796 1   
9797 7   
9798 2   
9799 1   
9800 5   
9801 5   
9802 9   
9803 2   
9804 8   
9805 2   
9806 7   
9807 2   
9808 10  
9809 8   
9810 7   
9811 7   
9812 4   
9813 1   
9814 7   
9815 5   
9816 1   
9817 9   
9818 8   
9819 2   
9820 10  
9821 5   
9822 3   
9823 3   
9824 5   
9825 10  
9826 1   
9827 3   
9828 3   
9829 1   
9830 5   
9831 1   
9832 9   
9833 4   
9834 6   
9835 2   
9836 9   
9837 9   
9838 1   
9839 7   
9840 5   
9841 4   
9842 1   
9843 8   
9844 6   
9845 4   
9846 9   
9847 7   
9848 1   
9849 6   
9850 6   
9851 10  
9852 7   
9853 7   
9854 7   
9855 10  
9856 5   
9857 4   
9858 5   
9859 9   
9860 9   
9861 2   
9862 5   
9863 4   
9864 1   
9865 8   
9866 10  
9867 3   
9868 6   
9869 4   
9870 9   
9871 6   
9872 4   
9873 9   
9874 5   
9875 9   
9876 9   
9877 4   
9878 2   
9879 3   
9880 5   
9881 10  
9882 8   
9883 8   
9884 10  
9885 9   
9886 9   
9887 1   
9888 9   
9889 5   
9890 9   
9891 3   
9892 2   
9893 9   
9894 4   
9895 5   
9896 5   
9897 10  
9898 5   
9899 1   
9900 1   
9901 9   
9902 6   
9903 5   
9904 7   
9905 2   
9906 10  
9907 1   
9908 5   
9909 1   
9910 2   
9911 3   
9912 1   
9913 9   
9914 6   
9915 5   
9916 7   
9917 1   
9918 10  
9919 3   
9920 2   
9921 8   
9922 9   
9923 8   
9924 1   
9925 5   
9926 3   
9927 3   
9928 2   
9929 4   
9930 3   
9931 1   
9932 3   
9933 4   
9934 3   
9935 10  
9936 6   
9937 1   
9938 7   
9939 5   
9940 7   
9941 5   
9942 3   
9943 7   
9944 9   
9945 2   
9946 9   
9947 8   
9948 5   
9949 4   
9950 10  
9951 7   
9952 3   
9953 8   
9954 5   
9955 3   
9956 3   
9957 6   
9958 3   
9959 8   
9960 3   
9961 1   
9962 10  
9963 5   
9964 1   
9965 1   
9966 6   
9967 7   
9968 1   
9969 4   
9970 5   
9971 6   
9972 5   
9973 2   
9974 7   
9975 4   
9976 8   
9977 2   
9978 10  
9979 9   
9980 4   
9981 5   
9982 7   
9983 3   
9984 8   
9985 7   
9986 1   
9987 7   
9988 6   
9989 3   
9990 6   
9991 6   
9992 5   
9993 5   
9994 5   
9995 7   
9996 1   
9997 6   
9998 1   
9999 9   
10000 1   
10001 3   
DEPOT_SECTION
1
-1
EOF
