NAME : XML100_1176_01
COMMENT : Generated as the XML100 dataset from the CVRPLIB
TYPE : CVRP
DIMENSION : 101
EDGE_WEIGHT_TYPE : EUC_2D
CAPACITY : 215
NODE_COORD_SECTION
1    7906 9471
2    563  8530
3    9939 1180
4    6802 578 
5    2178 7486
6    6354 8026
7    9426 7847
8    4500 2351
9    8772 1063
10   7122 3664
11   7439 7947
12   2885 7866
13   2282 7514
14   1572 5054
15   3955 8607
16   2664 7820
17   2702 2855
18   1957 4374
19   3935 5150
20   7466 4957
21   1458 757 
22   2562 3674
23   7906 9864
24   2724 8018
25   2716 9154
26   828  5728
27   5694 5374
28   8190 1028
29   9101 3416
30   8550 2923
31   4546 2625
32   5293 539 
33   9293 6130
34   5319 8223
35   82   8926
36   1519 2490
37   2452 6298
38   3204 9642
39   6887 2272
40   5721 8825
41   1850 1582
42   6147 725 
43   6938 7333
44   7300 4021
45   9550 66  
46   5233 3975
47   7098 6784
48   8868 9583
49   2224 6888
50   2517 3888
51   5917 730 
52   7143 7700
53   9785 9021
54   9851 2452
55   7560 6572
56   2314 5914
57   1730 4677
58   8029 5370
59   1781 9965
60   46   7185
61   4039 4740
62   6991 3403
63   3145 5732
64   7234 2725
65   6252 6901
66   3128 5712
67   1309 4288
68   604  520 
69   7578 8049
70   715  5433
71   9549 2592
72   9750 6564
73   1246 4095
74   9882 5817
75   4245 7507
76   6935 5380
77   3922 7203
78   8740 1326
79   6399 8122
80   8994 7383
81   7151 8210
82   9690 3189
83   6764 3905
84   243  3376
85   8514 8575
86   7325 5623
87   2990 1306
88   8136 4934
89   7340 6632
90   408  1906
91   7231 1616
92   8787 5998
93   3194 4962
94   1064 9577
95   7598 8559
96   3860 2195
97   4854 7132
98   4646 4297
99   4966 5940
100  4451 8521
101  7484 2861
DEMAND_SECTION
1    0   
2    6   
3    3   
4    7   
5    2   
6    8   
7    2   
8    3   
9    6   
10   6   
11   2   
12   9   
13   6   
14   81  
15   1   
16   6   
17   10  
18   4   
19   8   
20   7   
21   8   
22   4   
23   1   
24   7   
25   7   
26   1   
27   1   
28   5   
29   4   
30   2   
31   4   
32   10  
33   7   
34   2   
35   1   
36   2   
37   9   
38   8   
39   4   
40   3   
41   2   
42   2   
43   10  
44   6   
45   1   
46   9   
47   8   
48   7   
49   10  
50   4   
51   2   
52   7   
53   8   
54   4   
55   94  
56   8   
57   1   
58   7   
59   10  
60   6   
61   8   
62   8   
63   10  
64   10  
65   10  
66   68  
67   7   
68   4   
69   9   
70   4   
71   5   
72   1   
73   10  
74   6   
75   3   
76   6   
77   9   
78   81  
79   8   
80   4   
81   3   
82   8   
83   4   
84   10  
85   6   
86   2   
87   2   
88   5   
89   3   
90   2   
91   1   
92   2   
93   6   
94   1   
95   4   
96   7   
97   6   
98   3   
99   3   
100  8   
101  2   
DEPOT_SECTION
1
-1
EOF
