NAME : XML100_2176_01
COMMENT : Generated as the XML100 dataset from the CVRPLIB
TYPE : CVRP
DIMENSION : 101
EDGE_WEIGHT_TYPE : EUC_2D
CAPACITY : 211
NODE_COORD_SECTION
1    5000 5000
2    563  8530
3    9939 1180
4    6802 578 
5    2178 7486
6    6354 8026
7    9426 7847
8    4500 2351
9    8772 1063
10   7122 3664
11   7439 7947
12   2885 7866
13   2282 7514
14   1572 5054
15   3955 8607
16   2664 7820
17   2702 2855
18   1957 4374
19   3935 5150
20   7466 4957
21   1458 757 
22   2562 3674
23   7906 9864
24   2724 8018
25   2716 9154
26   828  5728
27   5694 5374
28   8190 1028
29   8550 2923
30   4546 2625
31   5293 539 
32   9293 6130
33   5319 8223
34   82   8926
35   1519 2490
36   2452 6298
37   3204 9642
38   6887 2272
39   5721 8825
40   1850 1582
41   6147 725 
42   6938 7333
43   7300 4021
44   9550 66  
45   5233 3975
46   7098 6784
47   8868 9583
48   2224 6888
49   2517 3888
50   5917 730 
51   7143 7700
52   9785 9021
53   9851 2452
54   7560 6572
55   2314 5914
56   1730 4677
57   8029 5370
58   1781 9965
59   46   7185
60   4039 4740
61   6991 3403
62   3145 5732
63   7234 2725
64   6252 6901
65   3128 5712
66   1309 4288
67   604  520 
68   7578 8049
69   715  5433
70   9549 2592
71   9750 6564
72   1246 4095
73   9882 5817
74   4245 7507
75   6935 5380
76   3922 7203
77   7906 9471
78   8740 1326
79   6399 8122
80   8994 7383
81   7151 8210
82   9690 3189
83   6764 3905
84   243  3376
85   8514 8575
86   7325 5623
87   2990 1306
88   8136 4934
89   7340 6632
90   408  1906
91   7231 1616
92   8787 5998
93   3194 4962
94   1064 9577
95   7598 8559
96   3860 2195
97   4854 7132
98   4646 4297
99   4966 5940
100  4451 8521
101  7484 2861
DEMAND_SECTION
1    0   
2    2   
3    7   
4    8   
5    8   
6    2   
7    7   
8    2   
9    10  
10   2   
11   4   
12   1   
13   81  
14   1   
15   10  
16   2   
17   4   
18   6   
19   8   
20   4   
21   8   
22   6   
23   9   
24   6   
25   8   
26   4   
27   6   
28   4   
29   9   
30   1   
31   5   
32   4   
33   10  
34   2   
35   1   
36   3   
37   1   
38   8   
39   7   
40   3   
41   3   
42   4   
43   1   
44   2   
45   6   
46   4   
47   2   
48   10  
49   6   
50   2   
51   10  
52   3   
53   81  
54   8   
55   1   
56   2   
57   10  
58   7   
59   7   
60   10  
61   9   
62   8   
63   78  
64   1   
65   7   
66   6   
67   7   
68   5   
69   10  
70   7   
71   6   
72   6   
73   7   
74   1   
75   68  
76   9   
77   3   
78   8   
79   6   
80   8   
81   8   
82   3   
83   8   
84   4   
85   5   
86   6   
87   2   
88   9   
89   3   
90   4   
91   3   
92   2   
93   4   
94   9   
95   2   
96   2   
97   4   
98   10  
99   1   
100  6   
101  7   
DEPOT_SECTION
1
-1
EOF
