NAME : XML50_2173_01
COMMENT : Generated as the XML100 dataset from the CVRPLIB
TYPE : CVRP
DIMENSION : 51
EDGE_WEIGHT_TYPE : EUC_2D
CAPACITY : 142
NODE_COORD_SECTION
1    5000 5000
2    7143 7700
3    563  8530
4    3922 7203
5    9939 1180
6    9851 2452
7    7906 9471
8    8550 2923
9    2178 7486
10   8740 1326
11   4546 2625
12   8994 7383
13   9293 6130
14   5319 8223
15   4500 2351
16   82   8926
17   8029 5370
18   2452 6298
19   6887 2272
20   6764 3905
21   243  3376
22   7122 3664
23   2885 7866
24   8136 4934
25   7234 2725
26   6252 6901
27   1850 1582
28   3128 5712
29   2702 2855
30   8787 5998
31   6147 725 
32   3194 4962
33   1064 9577
34   604  520 
35   7578 8049
36   3860 2195
37   7300 4021
38   1957 4374
39   3935 5150
40   9550 66  
41   7466 4957
42   715  5433
43   2562 3674
44   4646 4297
45   7098 6784
46   4966 5940
47   1246 4095
48   5694 5374
49   7484 2861
50   5917 730 
51   9882 5817
DEMAND_SECTION
1    0   
2    6   
3    2   
4    95  
5    5   
6    8   
7    6   
8    70  
9    95  
10   9   
11   5   
12   100 
13   3   
14   4   
15   58  
16   10  
17   8   
18   10  
19   6   
20   62  
21   4   
22   3   
23   96  
24   4   
25   8   
26   1   
27   8   
28   5   
29   8   
30   9   
31   2   
32   8   
33   2   
34   74  
35   2   
36   7   
37   6   
38   2   
39   8   
40   4   
41   6   
42   8   
43   1   
44   1   
45   2   
46   8   
47   2   
48   4   
49   4   
50   4   
51   6   
DEPOT_SECTION
1
-1
EOF
