NAME : XML50_1173_01
COMMENT : Generated as the XML100 dataset from the CVRPLIB
TYPE : CVRP
DIMENSION : 51
EDGE_WEIGHT_TYPE : EUC_2D
CAPACITY : 134
NODE_COORD_SECTION
1    7906 9471
2    7143 7700
3    563  8530
4    3922 7203
5    9939 1180
6    9851 2452
7    8550 2923
8    2178 7486
9    8740 1326
10   4546 2625
11   8994 7383
12   9293 6130
13   5319 8223
14   4500 2351
15   82   8926
16   8029 5370
17   2452 6298
18   6887 2272
19   6764 3905
20   243  3376
21   7122 3664
22   2885 7866
23   8136 4934
24   7234 2725
25   6252 6901
26   1850 1582
27   3128 5712
28   2702 2855
29   8787 5998
30   6147 725 
31   3194 4962
32   1064 9577
33   604  520 
34   7578 8049
35   3860 2195
36   7300 4021
37   1957 4374
38   3935 5150
39   9550 66  
40   7466 4957
41   715  5433
42   2562 3674
43   4646 4297
44   5233 3975
45   7098 6784
46   4966 5940
47   1246 4095
48   5694 5374
49   7484 2861
50   5917 730 
51   9882 5817
DEMAND_SECTION
1    0   
2    10  
3    73  
4    1   
5    5   
6    71  
7    6   
8    6   
9    3   
10   69  
11   5   
12   1   
13   76  
14   9   
15   7   
16   76  
17   1   
18   6   
19   5   
20   5   
21   7   
22   9   
23   72  
24   2   
25   9   
26   10  
27   84  
28   9   
29   4   
30   1   
31   5   
32   9   
33   10  
34   5   
35   6   
36   2   
37   53  
38   8   
39   7   
40   7   
41   3   
42   5   
43   7   
44   3   
45   3   
46   10  
47   10  
48   5   
49   7   
50   2   
51   10  
DEPOT_SECTION
1
-1
EOF
